NAME : VRP4_10k_Dataset
COMMENT : VRP4 Dataset (Manhattan, Demand=30%Supply, DepotCap=4xSupply, Depots=1%)
TYPE : CVRP_EXTENDED
DIMENSION : 10000
VEHICLES : 300
COMMODITIES : 4
PROHIBITED_EDGES_COUNT : 1903
EDGE_WEIGHT_TYPE : MAN_2D
COMMODITY_SECTION
1 food
2 drink
3 electronics
4 household
NODE_COORD_SECTION
1 500081 4797733
2 499863 4797477
3 499947 4797717
4 499906 4797696
5 499918 4797795
6 499890 4797580
7 499900 4797614
8 499832 4797794
9 500001 4797732
10 499939 4797553
11 499931 4797479
12 500016 4797712
13 500019 4797829
14 499981 4797643
15 499892 4797914
16 499816 4797802
17 499892 4797726
18 499866 4797761
19 499978 4797508
20 499775 4797826
21 499793 4797593
22 499892 4797751
23 499968 4797590
24 499988 4797738
25 500000 4797791
26 499921 4797716
27 499974 4797412
28 499799 4797740
29 499915 4797560
30 499990 4797639
31 499884 4797761
32 499952 4797728
33 499923 4797763
34 499938 4797616
35 500052 4797527
36 499936 4797812
37 499954 4797574
38 499872 4797503
39 499922 4797585
40 499870 4797726
41 499923 4797544
42 500008 4797787
43 499789 4797731
44 499934 4797735
45 499785 4797725
46 497174 4792601
47 497145 4792814
48 497219 4792641
49 497100 4792833
50 497127 4792775
51 497286 4792599
52 497060 4792422
53 497179 4792512
54 497277 4792602
55 497225 4792845
56 497251 4792557
57 497060 4792759
58 497208 4792640
59 497258 4792567
60 497055 4792656
61 497189 4792707
62 497110 4792589
63 497018 4792743
64 497198 4792777
65 497131 4792626
66 497185 4792746
67 497275 4792875
68 497126 4792528
69 497090 4792927
70 497170 4792738
71 497253 4792738
72 497016 4792561
73 497293 4792591
74 497256 4792789
75 497303 4792576
76 497106 4792767
77 497078 4792463
78 497240 4792628
79 497299 4792567
80 497147 4792813
81 496948 4792540
82 497124 4792671
83 497301 4792796
84 497255 4792528
85 496994 4792726
86 497145 4792675
87 497146 4792830
88 497134 4792598
89 497261 4792868
90 497109 4792532
91 496139 4792239
92 496406 4792094
93 496313 4792255
94 496052 4792327
95 496225 4792076
96 496452 4792366
97 496142 4792072
98 496359 4792170
99 496452 4792081
100 496173 4792224
101 496329 4792190
102 496223 4792165
103 496419 4792173
104 496276 4792269
105 496155 4792316
106 496305 4792269
107 496297 4792322
108 496298 4792023
109 496203 4792121
110 496476 4792089
111 496376 4791969
112 496267 4792376
113 496429 4792284
114 496347 4792110
115 496397 4792023
116 496194 4792224
117 496231 4792398
118 496362 4792063
119 496289 4792161
120 496406 4792165
121 496301 4792050
122 496284 4792240
123 496177 4792095
124 496206 4791946
125 496339 4792208
126 496348 4792312
127 496283 4792124
128 496350 4792112
129 496113 4792026
130 496381 4792279
131 496224 4792248
132 496330 4792340
133 496296 4792094
134 496387 4792363
135 496433 4792143
136 497395 4787685
137 497483 4787343
138 497550 4787667
139 497326 4787804
140 497575 4787739
141 497472 4787772
142 497446 4787618
143 497418 4787605
144 497422 4787693
145 497337 4787595
146 497444 4787636
147 497278 4787673
148 497518 4787402
149 497368 4787572
150 497386 4787595
151 497446 4787682
152 497531 4787776
153 497463 4787555
154 497278 4787468
155 497254 4787667
156 497327 4787636
157 497549 4787611
158 497385 4787603
159 497358 4787592
160 497274 4787806
161 497489 4787725
162 497359 4787685
163 497462 4787698
164 497484 4787781
165 497363 4787620
166 497621 4787640
167 497370 4787613
168 497449 4787638
169 497551 4787678
170 497504 4787529
171 497349 4787629
172 497462 4787930
173 497412 4787661
174 497378 4787440
175 497362 4787630
176 497433 4787750
177 497336 4787702
178 497473 4787784
179 497320 4787680
180 497365 4787630
181 498602 4794429
182 498402 4794274
183 498725 4794467
184 498685 4794508
185 498529 4794448
186 498547 4794177
187 498695 4794145
188 498475 4794617
189 498596 4794356
190 498397 4794345
191 498508 4794290
192 498424 4794528
193 498497 4794466
194 498529 4794392
195 498645 4794548
196 498480 4794508
197 498530 4794362
198 498669 4794564
199 498554 4794360
200 498686 4794333
201 498549 4794617
202 498555 4794479
203 498474 4794495
204 498416 4794444
205 498453 4794270
206 498544 4794118
207 498426 4794657
208 498556 4794472
209 498596 4794492
210 498368 4794400
211 498519 4794390
212 498506 4794387
213 498492 4794485
214 498474 4794465
215 498550 4794441
216 498598 4794337
217 498388 4794266
218 498550 4794322
219 498574 4794342
220 498635 4794596
221 498464 4794349
222 498521 4794398
223 498457 4794367
224 498550 4794363
225 498559 4794385
226 504160 4789340
227 504022 4789410
228 503962 4789334
229 503886 4789374
230 504055 4789454
231 503960 4789657
232 504125 4789522
233 503991 4789480
234 504021 4789535
235 504147 4789617
236 504166 4789357
237 503879 4789487
238 503977 4789670
239 504033 4789246
240 503977 4789435
241 504141 4789373
242 504067 4789466
243 504044 4789142
244 504058 4789703
245 504027 4789589
246 503999 4789526
247 504154 4789256
248 504131 4789492
249 504107 4789507
250 504215 4789467
251 504059 4789371
252 504240 4789513
253 504181 4789398
254 504156 4789489
255 504050 4789488
256 504060 4789487
257 503993 4789579
258 504218 4789549
259 504160 4789418
260 504030 4789398
261 503971 4789305
262 504095 4789343
263 504115 4789427
264 504093 4789353
265 504127 4789586
266 504143 4789480
267 504111 4789277
268 504023 4789313
269 504157 4789512
270 504208 4789326
271 504246 4787623
272 504260 4787560
273 504231 4787591
274 504368 4787424
275 504238 4787546
276 504352 4787454
277 504207 4787662
278 504109 4787645
279 504280 4787557
280 504085 4787496
281 504204 4787329
282 504246 4787635
283 504264 4787781
284 504328 4787658
285 504487 4787685
286 504281 4787560
287 504189 4787737
288 504108 4787584
289 504155 4787658
290 504323 4787630
291 504172 4787599
292 504345 4787703
293 504261 4787537
294 504209 4787737
295 504236 4787608
296 504274 4787496
297 504236 4787369
298 504247 4787707
299 504155 4787682
300 504274 4787456
301 504293 4787566
302 504215 4787376
303 504389 4787880
304 504200 4787306
305 504148 4787522
306 504223 4787697
307 504229 4787565
308 504306 4787449
309 504201 4787528
310 504170 4787569
311 504306 4787407
312 504241 4787647
313 504134 4787422
314 504252 4787474
315 504148 4787567
316 499670 4794924
317 499524 4795090
318 499679 4795000
319 499600 4795016
320 499735 4795059
321 499680 4795010
322 499639 4794884
323 499657 4795081
324 499700 4795047
325 499771 4795006
326 499778 4795167
327 499605 4794915
328 499651 4795040
329 499749 4794929
330 499791 4795152
331 499685 4795036
332 499580 4794996
333 499570 4795024
334 499612 4795026
335 499671 4794760
336 499690 4794958
337 499722 4795037
338 499740 4794978
339 499496 4795009
340 499576 4795029
341 499598 4794984
342 499576 4794922
343 499546 4794961
344 499696 4794824
345 499622 4795212
346 499798 4794850
347 499620 4795061
348 499568 4794991
349 499563 4794988
350 499808 4795094
351 499596 4794940
352 499546 4795129
353 499646 4795092
354 499709 4795101
355 499775 4794968
356 499691 4795166
357 499578 4794857
358 499629 4794956
359 499662 4795111
360 499699 4794900
361 496402 4791720
362 496529 4791866
363 496445 4791777
364 496400 4791943
365 496316 4791775
366 496404 4791983
367 496474 4792225
368 496498 4791920
369 496415 4791791
370 496339 4792022
371 496459 4791873
372 496266 4791832
373 496518 4792051
374 496353 4791919
375 496423 4791766
376 496314 4792058
377 496383 4791999
378 496509 4791996
379 496484 4791856
380 496406 4792029
381 496357 4791975
382 496472 4792012
383 496515 4792053
384 496337 4791966
385 496488 4791978
386 496486 4791930
387 496350 4791931
388 496464 4792137
389 496468 4791968
390 496428 4791948
391 496353 4791862
392 496388 4792062
393 496404 4792045
394 496444 4791901
395 496517 4792196
396 496359 4791970
397 496446 4791928
398 496434 4791897
399 496479 4792012
400 496442 4791921
401 496423 4791778
402 496436 4791963
403 496281 4791781
404 496392 4792061
405 496513 4791978
406 496701 4793911
407 496639 4793914
408 496569 4793793
409 496683 4793852
410 496781 4793967
411 496626 4793740
412 496588 4793887
413 496737 4793870
414 496781 4793730
415 496507 4793821
416 496759 4793733
417 496849 4794026
418 496648 4793942
419 496710 4793948
420 496732 4793846
421 496768 4793895
422 496803 4793998
423 496574 4793767
424 496724 4793844
425 496722 4793794
426 496569 4793963
427 496642 4793807
428 496750 4793740
429 496666 4793777
430 496590 4793774
431 496695 4793972
432 496725 4793813
433 496679 4793977
434 496726 4793928
435 496732 4793844
436 496618 4794035
437 496597 4793699
438 496804 4793724
439 496687 4793864
440 496834 4793795
441 496520 4793888
442 496695 4793777
443 496700 4793988
444 496719 4793761
445 496568 4793688
446 496754 4793555
447 496761 4793877
448 496628 4793907
449 496500 4793876
450 496676 4793826
451 502924 4789137
452 502874 4789137
453 502972 4789026
454 502936 4789216
455 503092 4789059
456 502895 4788984
457 503048 4789130
458 503033 4789140
459 503006 4789021
460 503035 4789228
461 502967 4789027
462 503027 4788792
463 502849 4788884
464 502829 4788998
465 502997 4789178
466 502890 4788943
467 503012 4788993
468 502841 4789105
469 502865 4789196
470 502866 4789185
471 502976 4789129
472 502787 4789080
473 502942 4788923
474 502840 4788978
475 503012 4789003
476 502843 4788971
477 502803 4789177
478 503204 4789266
479 502783 4789027
480 503083 4789054
481 502955 4789051
482 502884 4789122
483 502939 4789083
484 502988 4788856
485 503047 4789066
486 502881 4788868
487 502914 4788908
488 502771 4789110
489 502836 4788967
490 502943 4789085
491 502949 4789090
492 502888 4789141
493 502916 4789028
494 502904 4788991
495 502922 4789060
496 501786 4791022
497 502020 4790881
498 501876 4791196
499 502066 4790905
500 501969 4791018
501 501917 4790887
502 501942 4790887
503 501889 4791022
504 502054 4791114
505 502017 4791073
506 501883 4790823
507 502133 4791023
508 502056 4790982
509 502142 4790892
510 501824 4790820
511 502014 4790997
512 502104 4790893
513 502023 4790988
514 501834 4790805
515 501973 4790748
516 502027 4791112
517 501901 4791007
518 501881 4791125
519 501930 4791029
520 501899 4791085
521 502017 4791038
522 502009 4790982
523 502008 4790888
524 501978 4790967
525 502047 4790967
526 501978 4790947
527 502036 4791125
528 502122 4791017
529 502023 4791036
530 502100 4791085
531 502007 4790766
532 501950 4790936
533 501862 4791064
534 501980 4791067
535 501874 4791058
536 502154 4790907
537 501993 4790696
538 502010 4791127
539 501830 4791099
540 501856 4790915
541 504282 4788960
542 504214 4788971
543 504135 4789129
544 504193 4789082
545 504166 4789271
546 504232 4789097
547 504354 4789155
548 504324 4788827
549 504341 4789282
550 504453 4789160
551 504155 4789033
552 504173 4789179
553 504184 4789108
554 504344 4789443
555 504142 4788970
556 504270 4789183
557 504233 4789078
558 504264 4789264
559 504300 4789170
560 504370 4788969
561 504263 4789213
562 504351 4789055
563 504245 4789018
564 504213 4789198
565 504221 4789088
566 504154 4788891
567 504133 4789068
568 504092 4789183
569 504207 4789087
570 504215 4789033
571 504174 4789216
572 504322 4789012
573 504373 4789413
574 504227 4789195
575 504364 4789090
576 504287 4789234
577 504381 4789121
578 504111 4789142
579 504223 4789091
580 504278 4789109
581 504264 4789086
582 504392 4789124
583 504407 4789076
584 504117 4789134
585 504231 4788969
586 502911 4794822
587 502878 4794828
588 502920 4794848
589 502951 4794786
590 502908 4794768
591 502728 4794832
592 502942 4794929
593 502863 4794723
594 502843 4794940
595 502902 4794838
596 502966 4794869
597 502894 4794931
598 502977 4794915
599 502821 4794955
600 502910 4794912
601 502883 4794953
602 502742 4794730
603 502932 4794973
604 502834 4795006
605 502869 4794898
606 502940 4794899
607 502864 4794982
608 502682 4794757
609 502786 4794843
610 502935 4794776
611 502960 4795066
612 502841 4794797
613 502703 4794857
614 502830 4794885
615 502823 4794997
616 502775 4794962
617 502914 4794739
618 502774 4794893
619 502917 4795189
620 502892 4795000
621 502777 4794860
622 502893 4794997
623 503026 4795080
624 502904 4794690
625 502888 4794477
626 502756 4794891
627 502848 4794954
628 502944 4795034
629 502837 4794953
630 502653 4794831
631 500823 4791015
632 500700 4791140
633 500639 4790911
634 500724 4791109
635 500724 4791162
636 500750 4791262
637 500821 4791110
638 500595 4791449
639 500708 4791218
640 500726 4791095
641 500983 4791173
642 500636 4791022
643 500775 4791150
644 500775 4790930
645 500806 4791034
646 500616 4791114
647 500705 4790813
648 500679 4790946
649 500704 4791151
650 500789 4791132
651 500627 4791112
652 500887 4791029
653 500797 4791162
654 500816 4791169
655 500718 4791033
656 500652 4791034
657 500837 4791141
658 500709 4790863
659 500609 4791166
660 500747 4791305
661 500772 4791011
662 500756 4790991
663 500804 4791212
664 500760 4791044
665 500756 4791163
666 500720 4790966
667 500727 4791339
668 500722 4791047
669 500793 4791088
670 500817 4790953
671 500721 4791071
672 500632 4791028
673 500746 4790938
674 500721 4790992
675 500773 4791115
676 501771 4792106
677 501751 4792217
678 501861 4792294
679 501841 4792006
680 501844 4792193
681 502030 4792097
682 502007 4792092
683 501902 4792188
684 501813 4792149
685 501852 4792302
686 501889 4792207
687 501867 4792236
688 501901 4792264
689 501885 4792309
690 501955 4792282
691 501869 4792079
692 501901 4792045
693 501879 4792238
694 501928 4792284
695 501816 4792366
696 501859 4792082
697 501841 4792133
698 501740 4792333
699 501932 4792000
700 501876 4792319
701 501831 4792289
702 501950 4792174
703 501904 4792232
704 501919 4792190
705 501860 4792210
706 501809 4792272
707 501832 4792362
708 501894 4792292
709 501771 4792184
710 501821 4792087
711 501897 4792057
712 501708 4792094
713 501961 4792268
714 501913 4792287
715 501921 4792123
716 501824 4792130
717 502093 4792120
718 501746 4792111
719 501859 4792234
720 501836 4792170
721 498025 4789712
722 497914 4789519
723 497873 4789568
724 497877 4789757
725 497885 4789557
726 498034 4789800
727 497783 4789623
728 497882 4789542
729 497896 4789807
730 497985 4789537
731 498012 4789725
732 497825 4789488
733 497740 4789785
734 497983 4789570
735 497970 4789594
736 497807 4789466
737 497845 4789867
738 497926 4789661
739 497913 4789534
740 497842 4789467
741 497865 4789558
742 497903 4789633
743 497966 4789454
744 498042 4789670
745 497957 4789591
746 498055 4789571
747 497859 4789706
748 497801 4789594
749 497916 4789538
750 497954 4789864
751 498024 4789657
752 497932 4789700
753 498037 4789642
754 497893 4789645
755 498060 4789642
756 497880 4789623
757 497935 4789746
758 497910 4789372
759 498037 4789662
760 497874 4789968
761 497962 4789619
762 497923 4789477
763 497938 4789711
764 497877 4789749
765 497808 4789574
766 498650 4796108
767 498653 4795982
768 498702 4796161
769 498594 4796084
770 498492 4795959
771 498673 4796035
772 498733 4796198
773 498470 4796303
774 498521 4796112
775 498568 4796000
776 498632 4796160
777 498575 4796157
778 498596 4796015
779 498627 4796180
780 498722 4796157
781 498787 4796455
782 498586 4796004
783 498502 4796315
784 498623 4796146
785 498502 4796087
786 498590 4796192
787 498761 4795991
788 498594 4795922
789 498517 4796175
790 498793 4795894
791 498573 4796335
792 498636 4796084
793 498604 4796307
794 498614 4796266
795 498496 4796303
796 498662 4796064
797 498637 4795997
798 498663 4796110
799 498590 4796103
800 498537 4796102
801 498728 4795955
802 498640 4795885
803 498722 4796056
804 498670 4795920
805 498735 4796053
806 498482 4796170
807 498733 4795953
808 498871 4796023
809 498609 4796121
810 498650 4795972
811 498022 4796313
812 497925 4796566
813 497814 4796646
814 497929 4796720
815 497988 4796633
816 497827 4796446
817 497977 4796659
818 497879 4796844
819 498070 4796508
820 497931 4796718
821 497952 4796734
822 497971 4796678
823 498054 4796637
824 498013 4796815
825 497929 4796614
826 497926 4796482
827 497966 4796656
828 497829 4796449
829 497904 4796840
830 498004 4796454
831 497937 4796731
832 497960 4796530
833 497818 4796555
834 497912 4796773
835 498000 4796591
836 498020 4796835
837 497954 4796862
838 497909 4796564
839 498019 4796394
840 497864 4796664
841 497997 4796786
842 497893 4796697
843 497974 4796602
844 497827 4796635
845 497938 4796584
846 497902 4796703
847 497894 4796571
848 497830 4796625
849 497731 4796740
850 497836 4796822
851 497868 4796723
852 497916 4796588
853 497791 4796664
854 497781 4796877
855 497996 4796749
856 496201 4798000
857 496349 4797935
858 496320 4797792
859 496114 4798000
860 496209 4797927
861 496073 4797830
862 496384 4797825
863 496123 4798000
864 496144 4797931
865 496268 4798000
866 496383 4797763
867 496221 4797841
868 496072 4798000
869 496219 4798000
870 496242 4797754
871 496220 4798000
872 496252 4797748
873 496116 4798000
874 496341 4797992
875 496310 4797802
876 496188 4797783
877 496146 4798000
878 496214 4797855
879 496086 4797856
880 496207 4797853
881 496000 4798000
882 496124 4797943
883 496267 4797973
884 496263 4797942
885 496265 4797818
886 496196 4797968
887 496189 4797868
888 496113 4797993
889 496264 4797927
890 496092 4797980
891 496091 4798000
892 496138 4797825
893 496118 4798000
894 496247 4797761
895 496266 4797778
896 496147 4797906
897 496107 4797794
898 496348 4797967
899 496255 4798000
900 496198 4797743
901 498915 4791158
902 498838 4791420
903 499013 4791263
904 498987 4791234
905 499005 4791304
906 498890 4791144
907 498899 4791293
908 498791 4791243
909 498931 4791236
910 499029 4791201
911 498952 4791140
912 498983 4791368
913 499076 4791224
914 498818 4791325
915 498888 4791068
916 498913 4791164
917 498932 4791202
918 498971 4791336
919 498924 4791353
920 499006 4791436
921 498988 4791351
922 498912 4791262
923 499004 4791279
924 498921 4791206
925 498954 4791193
926 499011 4791180
927 498926 4791227
928 499006 4791263
929 498925 4791127
930 499045 4791119
931 498873 4791197
932 498978 4790978
933 499003 4791037
934 499114 4791147
935 498849 4791301
936 499037 4791145
937 499001 4791414
938 498912 4791165
939 498920 4791269
940 498866 4791146
941 498996 4791319
942 498945 4791376
943 498896 4791504
944 498955 4791211
945 498868 4791043
946 502456 4791155
947 502720 4790984
948 502690 4791050
949 502802 4791184
950 502755 4791185
951 502600 4791377
952 502607 4791207
953 502696 4791030
954 502848 4791230
955 502439 4791247
956 502657 4791097
957 502682 4791211
958 502709 4791161
959 502579 4791317
960 502671 4791097
961 502666 4791152
962 502604 4791287
963 502498 4791366
964 502605 4791172
965 502593 4790964
966 502528 4791129
967 502494 4791258
968 502767 4791252
969 502793 4791189
970 502555 4791261
971 502541 4791065
972 502797 4791187
973 502423 4791235
974 502580 4791108
975 502627 4791171
976 502607 4791219
977 502655 4791179
978 502582 4791091
979 502632 4791238
980 502629 4791192
981 502736 4791070
982 502634 4791075
983 502563 4791065
984 502650 4791342
985 502613 4791212
986 502736 4791323
987 502693 4791229
988 502628 4791222
989 502638 4791130
990 502592 4791034
991 503866 4790213
992 503926 4790335
993 503864 4790217
994 503922 4790272
995 503870 4790620
996 504105 4790376
997 503882 4790403
998 503799 4790397
999 503887 4790146
1000 503871 4790370
1001 503948 4790393
1002 503736 4790408
1003 503983 4790314
1004 503942 4790304
1005 503938 4790300
1006 503914 4790534
1007 503914 4790554
1008 503918 4790475
1009 504084 4790396
1010 503856 4789977
1011 503966 4790205
1012 503951 4790379
1013 503950 4790264
1014 503746 4790308
1015 503896 4790434
1016 503768 4790209
1017 504033 4790456
1018 503953 4790328
1019 504128 4790491
1020 504043 4790438
1021 504063 4790516
1022 503958 4790334
1023 503825 4790279
1024 503891 4790440
1025 503884 4790435
1026 503772 4790337
1027 504016 4790445
1028 503990 4790393
1029 503875 4790387
1030 503899 4790575
1031 503949 4790391
1032 503934 4790166
1033 503958 4790460
1034 503942 4790272
1035 503993 4790436
1036 499743 4797223
1037 499535 4797245
1038 499782 4797269
1039 499683 4797125
1040 499721 4797255
1041 499533 4796834
1042 499777 4797385
1043 499684 4797111
1044 499743 4797079
1045 499702 4797108
1046 499690 4797250
1047 499700 4797169
1048 499815 4797304
1049 499863 4797107
1050 499768 4796892
1051 499576 4797280
1052 499635 4797205
1053 499507 4797159
1054 499638 4797323
1055 499739 4797213
1056 499508 4797143
1057 499634 4797009
1058 499687 4797186
1059 499689 4797290
1060 499585 4797247
1061 499700 4797177
1062 499572 4797170
1063 499609 4796912
1064 499560 4797005
1065 499762 4797156
1066 499807 4797340
1067 499782 4797043
1068 499721 4797101
1069 499611 4797350
1070 499627 4797180
1071 499681 4797011
1072 499491 4797159
1073 499647 4797111
1074 499745 4797047
1075 499584 4797063
1076 499647 4797044
1077 499710 4796903
1078 499704 4797279
1079 499700 4797036
1080 499661 4797277
1081 500834 4794574
1082 500836 4794295
1083 500959 4794533
1084 500904 4794550
1085 500739 4794419
1086 500755 4794388
1087 500829 4794453
1088 500882 4794299
1089 500770 4794419
1090 500877 4794487
1091 500761 4794382
1092 500860 4794387
1093 500911 4794249
1094 500757 4794550
1095 500834 4794444
1096 500844 4794499
1097 500842 4794454
1098 500746 4794353
1099 500917 4794473
1100 500866 4794376
1101 500746 4794188
1102 500798 4794679
1103 500752 4794542
1104 500900 4794442
1105 500764 4794574
1106 500904 4794245
1107 500858 4794461
1108 500832 4794413
1109 500982 4794454
1110 500865 4794279
1111 500909 4794466
1112 500893 4794466
1113 500662 4794512
1114 500819 4794294
1115 500877 4794346
1116 500816 4794417
1117 500814 4794343
1118 500722 4794458
1119 500852 4794723
1120 500767 4794426
1121 500848 4794326
1122 500897 4794307
1123 500701 4794225
1124 500885 4794144
1125 500846 4794322
1126 501497 4787983
1127 501744 4788030
1128 501626 4787967
1129 501486 4787933
1130 501571 4787822
1131 501730 4788084
1132 501563 4787985
1133 501562 4788018
1134 501496 4788130
1135 501518 4787974
1136 501551 4788001
1137 501519 4788196
1138 501365 4787994
1139 501410 4788277
1140 501501 4788050
1141 501446 4787980
1142 501428 4788163
1143 501599 4788026
1144 501335 4787993
1145 501435 4788039
1146 501419 4788018
1147 501290 4787858
1148 501527 4787900
1149 501471 4788059
1150 501596 4787961
1151 501573 4787957
1152 501510 4787968
1153 501444 4787932
1154 501439 4788049
1155 501580 4787984
1156 501541 4787983
1157 501526 4787992
1158 501548 4788071
1159 501499 4788129
1160 501343 4788176
1161 501598 4788056
1162 501718 4787967
1163 501534 4788107
1164 501450 4787847
1165 501474 4787945
1166 501459 4788043
1167 501508 4788128
1168 501503 4788071
1169 501545 4787996
1170 501435 4788072
1171 496921 4797896
1172 496825 4797855
1173 496886 4797820
1174 496922 4797937
1175 496873 4797918
1176 497018 4797593
1177 496896 4798000
1178 496815 4797905
1179 496964 4797839
1180 496982 4797910
1181 496986 4797800
1182 496934 4797906
1183 496846 4797953
1184 496927 4797713
1185 497003 4797764
1186 496945 4797968
1187 497084 4797883
1188 496770 4797619
1189 497046 4797656
1190 496894 4797933
1191 496658 4797935
1192 496821 4797845
1193 496884 4797640
1194 496922 4797728
1195 496877 4798000
1196 496920 4797862
1197 496973 4797778
1198 496797 4797796
1199 496862 4797768
1200 496904 4797827
1201 497001 4797653
1202 496895 4797757
1203 496993 4797700
1204 496816 4798000
1205 496889 4797768
1206 496991 4797743
1207 496916 4798000
1208 496843 4798000
1209 496954 4797902
1210 496824 4797896
1211 496896 4797900
1212 496908 4797969
1213 496928 4797935
1214 496941 4797909
1215 496857 4797846
1216 502325 4793972
1217 502422 4794139
1218 502497 4793971
1219 502499 4794103
1220 502370 4793893
1221 502432 4794153
1222 502362 4794283
1223 502432 4793979
1224 502290 4793824
1225 502449 4794084
1226 502474 4794135
1227 502474 4793973
1228 502386 4794158
1229 502450 4793921
1230 502492 4794213
1231 502303 4794015
1232 502425 4793883
1233 502478 4794028
1234 502388 4794019
1235 502457 4793879
1236 502454 4793971
1237 502383 4793969
1238 502457 4793982
1239 502387 4794060
1240 502392 4793853
1241 502294 4793968
1242 502415 4793994
1243 502406 4793974
1244 502281 4794078
1245 502552 4793935
1246 502389 4794253
1247 502395 4794062
1248 502252 4793996
1249 502522 4794089
1250 502389 4793807
1251 502371 4793968
1252 502372 4793777
1253 502369 4793962
1254 502293 4793906
1255 502516 4793974
1256 502327 4793772
1257 502393 4793973
1258 502621 4794059
1259 502271 4794001
1260 502453 4793794
1261 498233 4787219
1262 498183 4787024
1263 498190 4787092
1264 498272 4787094
1265 497993 4786863
1266 498203 4787039
1267 498131 4787041
1268 498078 4786870
1269 498165 4787097
1270 498185 4787074
1271 498194 4787298
1272 498247 4786931
1273 498130 4787257
1274 498231 4787164
1275 498280 4787172
1276 498090 4786947
1277 498193 4787137
1278 498243 4787175
1279 498075 4787084
1280 498149 4787144
1281 498153 4787008
1282 498185 4787261
1283 498159 4787143
1284 498320 4787044
1285 498156 4786921
1286 498137 4786838
1287 498147 4786914
1288 498208 4787187
1289 498039 4787148
1290 498105 4786855
1291 498178 4787154
1292 498259 4787039
1293 498167 4786766
1294 498226 4787141
1295 498284 4787209
1296 498171 4787197
1297 498211 4787070
1298 498211 4787098
1299 498230 4787140
1300 498296 4786960
1301 498209 4787117
1302 498130 4787094
1303 498197 4787010
1304 498396 4787138
1305 498193 4786980
1306 501066 4786568
1307 501066 4786312
1308 500895 4786261
1309 500895 4786518
1310 501112 4786665
1311 501074 4786339
1312 500978 4786471
1313 500903 4786579
1314 501057 4786437
1315 501053 4786558
1316 500967 4786641
1317 501135 4786454
1318 500978 4786566
1319 500994 4786386
1320 500953 4786349
1321 501126 4786398
1322 500846 4786331
1323 500892 4786638
1324 501064 4786584
1325 500976 4786418
1326 501029 4786394
1327 500943 4786514
1328 501024 4786310
1329 501189 4786604
1330 501103 4786652
1331 500977 4786707
1332 501069 4786717
1333 501224 4786430
1334 501060 4786519
1335 500999 4786483
1336 501107 4786494
1337 501095 4786603
1338 501012 4786640
1339 500968 4786558
1340 501082 4786443
1341 501170 4786424
1342 501114 4786347
1343 500933 4786431
1344 500862 4786493
1345 501031 4786570
1346 501038 4786285
1347 501104 4786841
1348 501075 4786440
1349 500909 4786480
1350 500985 4786224
1351 504436 4786131
1352 504430 4786000
1353 504271 4786000
1354 504492 4786105
1355 504388 4786004
1356 504500 4786000
1357 504301 4786056
1358 504338 4786052
1359 504500 4786077
1360 504327 4786225
1361 504481 4786122
1362 504389 4786000
1363 504329 4786000
1364 504383 4786000
1365 504456 4786031
1366 504365 4786000
1367 504500 4786000
1368 504500 4786000
1369 504445 4786021
1370 504393 4786107
1371 504349 4786147
1372 504500 4786000
1373 504342 4786013
1374 504476 4786000
1375 504261 4786070
1376 504173 4786151
1377 504368 4786167
1378 504468 4786176
1379 504414 4786000
1380 504395 4786150
1381 504424 4786221
1382 504435 4786000
1383 504380 4786182
1384 504263 4786000
1385 504486 4786065
1386 504327 4786098
1387 504445 4786000
1388 504453 4786000
1389 504446 4786000
1390 504407 4786195
1391 504266 4786037
1392 504439 4786055
1393 504200 4786000
1394 504400 4786000
1395 504374 4786133
1396 500321 4797545
1397 500207 4797835
1398 500277 4797779
1399 500212 4797891
1400 500174 4797855
1401 500259 4797736
1402 500260 4798000
1403 500230 4797918
1404 500243 4798000
1405 500313 4797813
1406 500095 4797731
1407 500147 4797736
1408 500178 4797698
1409 500257 4797874
1410 500336 4797799
1411 500342 4797687
1412 500194 4797775
1413 500131 4797773
1414 500310 4797764
1415 500314 4797687
1416 500234 4797701
1417 500184 4797689
1418 500119 4797780
1419 500378 4797729
1420 500161 4797668
1421 500199 4797750
1422 500247 4797843
1423 500111 4797762
1424 500381 4798000
1425 500110 4797609
1426 500175 4797619
1427 500208 4797884
1428 500308 4797651
1429 500320 4797848
1430 500107 4797827
1431 500222 4797970
1432 500176 4798000
1433 500178 4797924
1434 500091 4797682
1435 500189 4797798
1436 500383 4797834
1437 500117 4797772
1438 500148 4797822
1439 500344 4797905
1440 500193 4797958
1441 499044 4790922
1442 499058 4790835
1443 498996 4791055
1444 498817 4791161
1445 498903 4790903
1446 499087 4790891
1447 498989 4790980
1448 498896 4791018
1449 498908 4790927
1450 498964 4790914
1451 499018 4791080
1452 499021 4791058
1453 498967 4790867
1454 498818 4790901
1455 499050 4790779
1456 499033 4790906
1457 498943 4791073
1458 498949 4791177
1459 499054 4791096
1460 498850 4790867
1461 498846 4790853
1462 498930 4790994
1463 498811 4791085
1464 498831 4790889
1465 499116 4790868
1466 498822 4790923
1467 499047 4790999
1468 499014 4791158
1469 498961 4790935
1470 498893 4791171
1471 498819 4790904
1472 499057 4791020
1473 498757 4790781
1474 498928 4790767
1475 498973 4790878
1476 498977 4790891
1477 498955 4790840
1478 499055 4790824
1479 498972 4790953
1480 498955 4791000
1481 498846 4790842
1482 498882 4790674
1483 499015 4791001
1484 498981 4790793
1485 498879 4790942
1486 502806 4787128
1487 502591 4787073
1488 502638 4787042
1489 502525 4787111
1490 502561 4787145
1491 502598 4787032
1492 502620 4787037
1493 502577 4787040
1494 502482 4787068
1495 502632 4786770
1496 502591 4787192
1497 502762 4787144
1498 502562 4786929
1499 502562 4787146
1500 502434 4787172
1501 502656 4787096
1502 502661 4786867
1503 502727 4787161
1504 502690 4787150
1505 502578 4787055
1506 502674 4787091
1507 502712 4786980
1508 502642 4786979
1509 502792 4787037
1510 502636 4787227
1511 502722 4787177
1512 502638 4787193
1513 502700 4786942
1514 502519 4787123
1515 502663 4786975
1516 502719 4787042
1517 502557 4786940
1518 502635 4786862
1519 502752 4787095
1520 502693 4787267
1521 502644 4787024
1522 502782 4786924
1523 502649 4787142
1524 502589 4787103
1525 502675 4787025
1526 502480 4787074
1527 502601 4786901
1528 502889 4787235
1529 502830 4787083
1530 502658 4786944
1531 502612 4795935
1532 502471 4795846
1533 502498 4795832
1534 502598 4796022
1535 502477 4795886
1536 502451 4795709
1537 502553 4795992
1538 502682 4795796
1539 502581 4795852
1540 502608 4795854
1541 502805 4796110
1542 502616 4795950
1543 502775 4795849
1544 502559 4795862
1545 502557 4795885
1546 502575 4795678
1547 502550 4795961
1548 502545 4795880
1549 502581 4795975
1550 502448 4795829
1551 502490 4795815
1552 502736 4796059
1553 502426 4795909
1554 502635 4795975
1555 502487 4795986
1556 502628 4795745
1557 502704 4795913
1558 502543 4795955
1559 502553 4796048
1560 502488 4795908
1561 502546 4796004
1562 502606 4795851
1563 502525 4795859
1564 502606 4795759
1565 502606 4795866
1566 502617 4796017
1567 502484 4795893
1568 502678 4796144
1569 502533 4795957
1570 502627 4795824
1571 502615 4795875
1572 502511 4795953
1573 502632 4795904
1574 502556 4795750
1575 502629 4795890
1576 498272 4788198
1577 498342 4788302
1578 498390 4788198
1579 498434 4787816
1580 498401 4788248
1581 498184 4788203
1582 498382 4788444
1583 498445 4788042
1584 498503 4788256
1585 498258 4788263
1586 498317 4788143
1587 498358 4788161
1588 498326 4788152
1589 498461 4788196
1590 498359 4788139
1591 498486 4788179
1592 498376 4788301
1593 498254 4788296
1594 498397 4788225
1595 498408 4788242
1596 498375 4787991
1597 498380 4788116
1598 498351 4788297
1599 498445 4788299
1600 498400 4788144
1601 498428 4788271
1602 498487 4788219
1603 498394 4788176
1604 498542 4788243
1605 498323 4788309
1606 498298 4788408
1607 498293 4787951
1608 498479 4788295
1609 498371 4788217
1610 498298 4788229
1611 498417 4788344
1612 498496 4788161
1613 498377 4788222
1614 498597 4788165
1615 498464 4788096
1616 498431 4788129
1617 498453 4788300
1618 498423 4788246
1619 498315 4788372
1620 498593 4788088
1621 496140 4796616
1622 496346 4796744
1623 496117 4796515
1624 496255 4796656
1625 496180 4796598
1626 496175 4796725
1627 496219 4796812
1628 496045 4796844
1629 496215 4796573
1630 496101 4796626
1631 496104 4796612
1632 496048 4796742
1633 496146 4796678
1634 496223 4796474
1635 496039 4796620
1636 496143 4796814
1637 496177 4796680
1638 496211 4796577
1639 496159 4796736
1640 496193 4796719
1641 496048 4796751
1642 496176 4796643
1643 496000 4796592
1644 496000 4796569
1645 496000 4796686
1646 496112 4796690
1647 496062 4796563
1648 496125 4796629
1649 496296 4796603
1650 496205 4796556
1651 496217 4796697
1652 496146 4796877
1653 496205 4796696
1654 496162 4796748
1655 496101 4796424
1656 496219 4796545
1657 496000 4796658
1658 496015 4796728
1659 496317 4796710
1660 496141 4796664
1661 496211 4796818
1662 496096 4796743
1663 496264 4796896
1664 496204 4796798
1665 496003 4796730
1666 501586 4797641
1667 501555 4797589
1668 501614 4797591
1669 501547 4797544
1670 501575 4797529
1671 501670 4797517
1672 501611 4797788
1673 501552 4797563
1674 501646 4797578
1675 501673 4797611
1676 501660 4797694
1677 501616 4797735
1678 501528 4797678
1679 501620 4797567
1680 501626 4797598
1681 501583 4797738
1682 501552 4797375
1683 501527 4797539
1684 501516 4797735
1685 501659 4797478
1686 501497 4797675
1687 501461 4797426
1688 501620 4797412
1689 501643 4797616
1690 501645 4797692
1691 501544 4797444
1692 501613 4797645
1693 501463 4797629
1694 501624 4797702
1695 501722 4797679
1696 501656 4797780
1697 501429 4797501
1698 501530 4797822
1699 501829 4797796
1700 501619 4797342
1701 501638 4797501
1702 501561 4797633
1703 501589 4797642
1704 501669 4797612
1705 501693 4797860
1706 501569 4797691
1707 501559 4797680
1708 501624 4797619
1709 501673 4797591
1710 501658 4797534
1711 504344 4786389
1712 504500 4786489
1713 504422 4786364
1714 504438 4786229
1715 504415 4786284
1716 504500 4786211
1717 504500 4786335
1718 504433 4786401
1719 504500 4786360
1720 504337 4786038
1721 504318 4786344
1722 504500 4786251
1723 504409 4786232
1724 504311 4786182
1725 504264 4786551
1726 504473 4786366
1727 504436 4786205
1728 504425 4786127
1729 504484 4786458
1730 504500 4786351
1731 504401 4786188
1732 504363 4786004
1733 504356 4786251
1734 504500 4786330
1735 504269 4786428
1736 504345 4786196
1737 504348 4786231
1738 504376 4786327
1739 504364 4786236
1740 504409 4786176
1741 504461 4786262
1742 504500 4786526
1743 504486 4786136
1744 504202 4786347
1745 504271 4786304
1746 504336 4786267
1747 504500 4786272
1748 504337 4786000
1749 504458 4786308
1750 504500 4786290
1751 504473 4786206
1752 504500 4786451
1753 504314 4786200
1754 504471 4786178
1755 504500 4786210
1756 500864 4796034
1757 500805 4796068
1758 500872 4796112
1759 500841 4795896
1760 500811 4795893
1761 501002 4795795
1762 500849 4795705
1763 500930 4795966
1764 500940 4795975
1765 500979 4796081
1766 500979 4795974
1767 500990 4795987
1768 501003 4795907
1769 500838 4796124
1770 500866 4795844
1771 500960 4796053
1772 500944 4796121
1773 501079 4796023
1774 500866 4795954
1775 500915 4796091
1776 500966 4795939
1777 500860 4796226
1778 500855 4796224
1779 501009 4796003
1780 500978 4795884
1781 500957 4796034
1782 501015 4795802
1783 500977 4796110
1784 500667 4796075
1785 501027 4795999
1786 500886 4796064
1787 501014 4796054
1788 500886 4796120
1789 500859 4796027
1790 500834 4796086
1791 500765 4795914
1792 500884 4796009
1793 500933 4796348
1794 500788 4796036
1795 500935 4795926
1796 501035 4795947
1797 501044 4795889
1798 500948 4796043
1799 500993 4796044
1800 500858 4795904
1801 499697 4790411
1802 499851 4790404
1803 499798 4790391
1804 499730 4790668
1805 499870 4790239
1806 499799 4790593
1807 499711 4790557
1808 499823 4790736
1809 499820 4790349
1810 499843 4790459
1811 499870 4790507
1812 499873 4790484
1813 499841 4790366
1814 499794 4790333
1815 499812 4790538
1816 499902 4790512
1817 499854 4790616
1818 499755 4790353
1819 499915 4790441
1820 499770 4790515
1821 499694 4790551
1822 499751 4790412
1823 499831 4790411
1824 499923 4790469
1825 499854 4790486
1826 499871 4790320
1827 499908 4790338
1828 499926 4790391
1829 499806 4790462
1830 499645 4790644
1831 499808 4790323
1832 499813 4790152
1833 499710 4790414
1834 499819 4790553
1835 499860 4790449
1836 499906 4790526
1837 499961 4790551
1838 499960 4790291
1839 499870 4790642
1840 499829 4790475
1841 499706 4790378
1842 499839 4790406
1843 499909 4790612
1844 499814 4790499
1845 500044 4790582
1846 498182 4797910
1847 498083 4797758
1848 497989 4797636
1849 498167 4797674
1850 498105 4797756
1851 498164 4797676
1852 498188 4797781
1853 497961 4797705
1854 498014 4797894
1855 498125 4797822
1856 497976 4797576
1857 498023 4797521
1858 498051 4797938
1859 497952 4797656
1860 498051 4797780
1861 497991 4797685
1862 498209 4797813
1863 498128 4797760
1864 498074 4797724
1865 497899 4797597
1866 498001 4797771
1867 498181 4797621
1868 497926 4797859
1869 497996 4797677
1870 498005 4797862
1871 498122 4797765
1872 498176 4797665
1873 498022 4797782
1874 498064 4797784
1875 498044 4797652
1876 498171 4797720
1877 498122 4797730
1878 498054 4797780
1879 497821 4797644
1880 497974 4797378
1881 498092 4797816
1882 498046 4797567
1883 498086 4797861
1884 498121 4797483
1885 497985 4797739
1886 498137 4797668
1887 498041 4797749
1888 498062 4797677
1889 498178 4797663
1890 498194 4797710
1891 498591 4793651
1892 498685 4793640
1893 498650 4793723
1894 498589 4793574
1895 498639 4793670
1896 498659 4793592
1897 498579 4793922
1898 498616 4793886
1899 498753 4793672
1900 498671 4793842
1901 498507 4793610
1902 498528 4793855
1903 498586 4793642
1904 498623 4793715
1905 498478 4793899
1906 498412 4793821
1907 498536 4793747
1908 498628 4793770
1909 498493 4793792
1910 498462 4793544
1911 498529 4793444
1912 498678 4793791
1913 498542 4793751
1914 498642 4793735
1915 498390 4793846
1916 498478 4793740
1917 498603 4793862
1918 498498 4793700
1919 498673 4793582
1920 498693 4793593
1921 498564 4793787
1922 498578 4793724
1923 498623 4793827
1924 498432 4793680
1925 498528 4793732
1926 498544 4793834
1927 498482 4793747
1928 498759 4793793
1929 498461 4793616
1930 498574 4793647
1931 498504 4793433
1932 498540 4793760
1933 498626 4793724
1934 498636 4793679
1935 498614 4793741
1936 496734 4789536
1937 496732 4789621
1938 496719 4789523
1939 496795 4789358
1940 496591 4789785
1941 496943 4789655
1942 496577 4789809
1943 496627 4789825
1944 496827 4789604
1945 496730 4789608
1946 496702 4789622
1947 496591 4789644
1948 496804 4789613
1949 496742 4789711
1950 496741 4789595
1951 496687 4789654
1952 496721 4789580
1953 496692 4789618
1954 496663 4789701
1955 496774 4789950
1956 496820 4789817
1957 496833 4789512
1958 496808 4789859
1959 496453 4789554
1960 496821 4789686
1961 496802 4789598
1962 496696 4789657
1963 496792 4789512
1964 496722 4789488
1965 496713 4789649
1966 496673 4789500
1967 496662 4789568
1968 496834 4789752
1969 496660 4789754
1970 496704 4789632
1971 496685 4789464
1972 496706 4789622
1973 496594 4789643
1974 496716 4789479
1975 496731 4789620
1976 496778 4789614
1977 496726 4789753
1978 496725 4789631
1979 496698 4789675
1980 496650 4789638
1981 499173 4787475
1982 499181 4787528
1983 499088 4787546
1984 499314 4787626
1985 499064 4787531
1986 499048 4787362
1987 499124 4787516
1988 499157 4787481
1989 499284 4787485
1990 499173 4787507
1991 499282 4787400
1992 499270 4787233
1993 499218 4787748
1994 499195 4787409
1995 499119 4787348
1996 499238 4787499
1997 499211 4787486
1998 499270 4787507
1999 499288 4787499
2000 499261 4787374
2001 499225 4787625
2002 499240 4787509
2003 499030 4787514
2004 499158 4787704
2005 499140 4787551
2006 499305 4787439
2007 499202 4787601
2008 499036 4787483
2009 499019 4787644
2010 499087 4787342
2011 499133 4787347
2012 499149 4787323
2013 499084 4787293
2014 499087 4787622
2015 499209 4787447
2016 499118 4787538
2017 499226 4787476
2018 499192 4787368
2019 499157 4787596
2020 499291 4787510
2021 499078 4787498
2022 499085 4787548
2023 499129 4787612
2024 499171 4787670
2025 499250 4787422
2026 497062 4790982
2027 497059 4791128
2028 497046 4790935
2029 497054 4790894
2030 497210 4790963
2031 497153 4790966
2032 497150 4790786
2033 497188 4790756
2034 497053 4790903
2035 496989 4790801
2036 497025 4790628
2037 497033 4790526
2038 497109 4790844
2039 497258 4790903
2040 497005 4790785
2041 497158 4790807
2042 497154 4790822
2043 497074 4790838
2044 497059 4790936
2045 496971 4790819
2046 497069 4790977
2047 497029 4790905
2048 496978 4791104
2049 497296 4790941
2050 496961 4790889
2051 497250 4790919
2052 497128 4791017
2053 496974 4790941
2054 496951 4790990
2055 497039 4790873
2056 496983 4790861
2057 497164 4790833
2058 497098 4790923
2059 496929 4790987
2060 497080 4790745
2061 497046 4790797
2062 497036 4790794
2063 496908 4790691
2064 496990 4790834
2065 497040 4790776
2066 497016 4790779
2067 496993 4790970
2068 497141 4790864
2069 496930 4790888
2070 497065 4790836
2071 503297 4792280
2072 503207 4792322
2073 503184 4792266
2074 503375 4792342
2075 503358 4792196
2076 503316 4792078
2077 503350 4792255
2078 503247 4792193
2079 503366 4792219
2080 503174 4792183
2081 503295 4792339
2082 503386 4792384
2083 503228 4792190
2084 503257 4792049
2085 503354 4792076
2086 503355 4792231
2087 503288 4792093
2088 503258 4792265
2089 503023 4792384
2090 503315 4792272
2091 503241 4792189
2092 503390 4792213
2093 503294 4792166
2094 503225 4792261
2095 503236 4792061
2096 503301 4791971
2097 503277 4792262
2098 503423 4792292
2099 503153 4792073
2100 503378 4791992
2101 503290 4792338
2102 503343 4792114
2103 503175 4792227
2104 503264 4792316
2105 503317 4792058
2106 503067 4792135
2107 503209 4792383
2108 503164 4792271
2109 503170 4792184
2110 503424 4792394
2111 503371 4792248
2112 503363 4792236
2113 503168 4792221
2114 503291 4792302
2115 503343 4792058
2116 498776 4795084
2117 498716 4795191
2118 498714 4795412
2119 498666 4795289
2120 498566 4795326
2121 498766 4795335
2122 498764 4795292
2123 498657 4795247
2124 498669 4795312
2125 498655 4795297
2126 498555 4795148
2127 498607 4795253
2128 498797 4795161
2129 498638 4795120
2130 498583 4795224
2131 498701 4795319
2132 498672 4795180
2133 498652 4795318
2134 498570 4795131
2135 498643 4795239
2136 498592 4795335
2137 498765 4795210
2138 498683 4795017
2139 498617 4795297
2140 498663 4795358
2141 498810 4795147
2142 498717 4795461
2143 498756 4795237
2144 498624 4795200
2145 498645 4795191
2146 498764 4795069
2147 498621 4795071
2148 498775 4795142
2149 498699 4795112
2150 498631 4795028
2151 498691 4795262
2152 498629 4795454
2153 498647 4795244
2154 498751 4795094
2155 498665 4795098
2156 498570 4795255
2157 498616 4795163
2158 498798 4795356
2159 498762 4795248
2160 498762 4795325
2161 503523 4788801
2162 503474 4788883
2163 503344 4788799
2164 503223 4788706
2165 503448 4788972
2166 503343 4788815
2167 503222 4788656
2168 503337 4788944
2169 503206 4788581
2170 503400 4788653
2171 503473 4788715
2172 503432 4788850
2173 503425 4788938
2174 503560 4788755
2175 503253 4788844
2176 503330 4788887
2177 503405 4788853
2178 503358 4788690
2179 503407 4788880
2180 503479 4788846
2181 503269 4788997
2182 503405 4789090
2183 503227 4788805
2184 503279 4788955
2185 503387 4789077
2186 503367 4789064
2187 503361 4788798
2188 503350 4789084
2189 503394 4788669
2190 503440 4788961
2191 503327 4788752
2192 503469 4788896
2193 503284 4788601
2194 503295 4788842
2195 503255 4788700
2196 503360 4789147
2197 503343 4788855
2198 503407 4788918
2199 503301 4788622
2200 503416 4788789
2201 503281 4788668
2202 503264 4788914
2203 503319 4788804
2204 503224 4788748
2205 503281 4788771
2206 503607 4794263
2207 503526 4794171
2208 503577 4794411
2209 503487 4794382
2210 503469 4794241
2211 503524 4794149
2212 503520 4794342
2213 503519 4794228
2214 503752 4794430
2215 503512 4794298
2216 503461 4794236
2217 503595 4794184
2218 503621 4794152
2219 503597 4794256
2220 503475 4794374
2221 503505 4794178
2222 503665 4794313
2223 503549 4794432
2224 503661 4794224
2225 503552 4794290
2226 503394 4794276
2227 503586 4794202
2228 503674 4794397
2229 503468 4794630
2230 503483 4794469
2231 503560 4794172
2232 503474 4794387
2233 503587 4794449
2234 503661 4794320
2235 503539 4794453
2236 503578 4794331
2237 503643 4794293
2238 503541 4794261
2239 503543 4794296
2240 503565 4794363
2241 503417 4794380
2242 503437 4794252
2243 503564 4794124
2244 503628 4794224
2245 503471 4794349
2246 503595 4794379
2247 503568 4794514
2248 503530 4794310
2249 503614 4794323
2250 503731 4794540
2251 500276 4792225
2252 500216 4792325
2253 500330 4792368
2254 500352 4792112
2255 500473 4792471
2256 500338 4792418
2257 500381 4792399
2258 500356 4792322
2259 500406 4792415
2260 500263 4792308
2261 500434 4792295
2262 500338 4792343
2263 500353 4792279
2264 500203 4792215
2265 500351 4792471
2266 500301 4792527
2267 500246 4792546
2268 500302 4792340
2269 500379 4792328
2270 500291 4792220
2271 500322 4792564
2272 500418 4792350
2273 500312 4792450
2274 500410 4792155
2275 500285 4792115
2276 500428 4792153
2277 500199 4792518
2278 500292 4792413
2279 500326 4792422
2280 500262 4792280
2281 500350 4792267
2282 500248 4792442
2283 500389 4792362
2284 500273 4792598
2285 500367 4792387
2286 500379 4792379
2287 500207 4792251
2288 500316 4792214
2289 500413 4792489
2290 500116 4792451
2291 500402 4792325
2292 500400 4792288
2293 500499 4792282
2294 500198 4792213
2295 500285 4792123
2296 496056 4787717
2297 496104 4787496
2298 496024 4787675
2299 496085 4787640
2300 496227 4787882
2301 496000 4787739
2302 496062 4787678
2303 496062 4787915
2304 496000 4787568
2305 496044 4787809
2306 496079 4787718
2307 496000 4787860
2308 496000 4787727
2309 496000 4787855
2310 496078 4787802
2311 496125 4787793
2312 496120 4787907
2313 496006 4787601
2314 496000 4787815
2315 496106 4787826
2316 496000 4787716
2317 496000 4787671
2318 496000 4787723
2319 496000 4787412
2320 496122 4787866
2321 496000 4787739
2322 496000 4787726
2323 496083 4787790
2324 496062 4787622
2325 496000 4787705
2326 496012 4787925
2327 496000 4787707
2328 496158 4787795
2329 496068 4787903
2330 496060 4787746
2331 496000 4787820
2332 496000 4787739
2333 496000 4787727
2334 496225 4787766
2335 496113 4787897
2336 496000 4787992
2337 496133 4787625
2338 496067 4787800
2339 496000 4787637
2340 496097 4787863
2341 496937 4795118
2342 496834 4795153
2343 496727 4794934
2344 496947 4795111
2345 496818 4795045
2346 496895 4794745
2347 496882 4794850
2348 496927 4795102
2349 496882 4794925
2350 496909 4794932
2351 496879 4795068
2352 496830 4795125
2353 496803 4794794
2354 496774 4794946
2355 496795 4795157
2356 496745 4794944
2357 496737 4795201
2358 496841 4795291
2359 496767 4794904
2360 496742 4795039
2361 496877 4795059
2362 496934 4795031
2363 496788 4795038
2364 496925 4794877
2365 496848 4795039
2366 496910 4795253
2367 496922 4794939
2368 496809 4794982
2369 496847 4795069
2370 496759 4795070
2371 497002 4794902
2372 496956 4794827
2373 496904 4794693
2374 496849 4795105
2375 496923 4794879
2376 496794 4794853
2377 496862 4794991
2378 496877 4794967
2379 496793 4795039
2380 496878 4795066
2381 496945 4795128
2382 496796 4794974
2383 496909 4794796
2384 496912 4794936
2385 496846 4795073
2386 504249 4791637
2387 504067 4791566
2388 504265 4791594
2389 504207 4791561
2390 504208 4791378
2391 504110 4791585
2392 504188 4791656
2393 504139 4791720
2394 504163 4791401
2395 504226 4791796
2396 504197 4791532
2397 504062 4791682
2398 503990 4791450
2399 504190 4791560
2400 504119 4791757
2401 504200 4791622
2402 504170 4791425
2403 504134 4791845
2404 504157 4791718
2405 504100 4791629
2406 504141 4791665
2407 504150 4791509
2408 504065 4791550
2409 504099 4791505
2410 504193 4791550
2411 503969 4791688
2412 504193 4791723
2413 504227 4791708
2414 503982 4791436
2415 504218 4791487
2416 504155 4791581
2417 504132 4791605
2418 504155 4791418
2419 504231 4791761
2420 504237 4791574
2421 504168 4791567
2422 504129 4791525
2423 504143 4791835
2424 504184 4791668
2425 504217 4791445
2426 504207 4791590
2427 504239 4791639
2428 504168 4791576
2429 504391 4791555
2430 504177 4791516
2431 498983 4792313
2432 499138 4792522
2433 498968 4792499
2434 498958 4792546
2435 499038 4792270
2436 498897 4792564
2437 498948 4792392
2438 499131 4792632
2439 499032 4792662
2440 499021 4792420
2441 498972 4792328
2442 498888 4792381
2443 499050 4792508
2444 498823 4792574
2445 499026 4792559
2446 498908 4792478
2447 498972 4792316
2448 499036 4792465
2449 498938 4792551
2450 499022 4792376
2451 498937 4792478
2452 498980 4792347
2453 498913 4792448
2454 499103 4792372
2455 499029 4792529
2456 498894 4792664
2457 499025 4792616
2458 498982 4792587
2459 498927 4792604
2460 499040 4792635
2461 499043 4792475
2462 498901 4792833
2463 499038 4792478
2464 499021 4792586
2465 498871 4792371
2466 498929 4792389
2467 499165 4792194
2468 498949 4792533
2469 498931 4792457
2470 499017 4792597
2471 499092 4792464
2472 498953 4792432
2473 499071 4792513
2474 499054 4792644
2475 498878 4792517
2476 502584 4789989
2477 502848 4789967
2478 502913 4789934
2479 502897 4789798
2480 502929 4790110
2481 503061 4789978
2482 502974 4790089
2483 502928 4790012
2484 502876 4790099
2485 502801 4789867
2486 502948 4789960
2487 502859 4790023
2488 502986 4790246
2489 502974 4790106
2490 502936 4789986
2491 503055 4790218
2492 502974 4789975
2493 502876 4789940
2494 502871 4789757
2495 503021 4789979
2496 502844 4789976
2497 502787 4789985
2498 503005 4790043
2499 502904 4789905
2500 502969 4789848
2501 502902 4790003
2502 502758 4789896
2503 502950 4789922
2504 502854 4790025
2505 502879 4790029
2506 503030 4789970
2507 502842 4789839
2508 503101 4790006
2509 502866 4790126
2510 502906 4790035
2511 502921 4789984
2512 503112 4789982
2513 502841 4790001
2514 502873 4789824
2515 502925 4789911
2516 502816 4789828
2517 502942 4789934
2518 502952 4790074
2519 502923 4789881
2520 502977 4790029
2521 496590 4796226
2522 496570 4796432
2523 496518 4796241
2524 496661 4796351
2525 496774 4796133
2526 496736 4796256
2527 496677 4796394
2528 496759 4796273
2529 496585 4796546
2530 496664 4796150
2531 496677 4796176
2532 496710 4796204
2533 496619 4796168
2534 496660 4796435
2535 496742 4796201
2536 496632 4796235
2537 496760 4796254
2538 496684 4796354
2539 496716 4796311
2540 496677 4796332
2541 496674 4796396
2542 496563 4796425
2543 496675 4796210
2544 496623 4796190
2545 496621 4796240
2546 496613 4796397
2547 496730 4796217
2548 496588 4796105
2549 496597 4796171
2550 496661 4796414
2551 496658 4796242
2552 496568 4796360
2553 496613 4796331
2554 496612 4796412
2555 496541 4796453
2556 496667 4796486
2557 496616 4796268
2558 496666 4796292
2559 496677 4796276
2560 496520 4796364
2561 496574 4796119
2562 496752 4796229
2563 496595 4796320
2564 496563 4796278
2565 496624 4796377
2566 502395 4789867
2567 502535 4789733
2568 502364 4789936
2569 502329 4789759
2570 502351 4789879
2571 502354 4789650
2572 502439 4790055
2573 502340 4789926
2574 502539 4789845
2575 502383 4789694
2576 502358 4789804
2577 502399 4789835
2578 502282 4789853
2579 502310 4789759
2580 502367 4789598
2581 502420 4789753
2582 502192 4789783
2583 502361 4789757
2584 502467 4789711
2585 502396 4789811
2586 502420 4789873
2587 502436 4789849
2588 502391 4789625
2589 502340 4789630
2590 502506 4789872
2591 502337 4789617
2592 502310 4789703
2593 502390 4789681
2594 502255 4789811
2595 502457 4789922
2596 502415 4789697
2597 502493 4789970
2598 502442 4789871
2599 502480 4789815
2600 502195 4789583
2601 502440 4789818
2602 502324 4789912
2603 502194 4789796
2604 502507 4789714
2605 502451 4789753
2606 502280 4789830
2607 502482 4789402
2608 502316 4789807
2609 502307 4789703
2610 502289 4789820
2611 502817 4796567
2612 502861 4796268
2613 502845 4796286
2614 502657 4796234
2615 502702 4796456
2616 502649 4796352
2617 502653 4796514
2618 502748 4796467
2619 502828 4796157
2620 502909 4796216
2621 502822 4796455
2622 502714 4796282
2623 502807 4796313
2624 502702 4796357
2625 502662 4796216
2626 502793 4796484
2627 502807 4796053
2628 502727 4796488
2629 502737 4796361
2630 502625 4796269
2631 502829 4796234
2632 502747 4796306
2633 502919 4796329
2634 502646 4796172
2635 502787 4796374
2636 502736 4796264
2637 502697 4796420
2638 502787 4796317
2639 502722 4796422
2640 502672 4796659
2641 502610 4796465
2642 502745 4796511
2643 502846 4796278
2644 502679 4796494
2645 502726 4796116
2646 502862 4796320
2647 502689 4796443
2648 502784 4796204
2649 502823 4796289
2650 502656 4796368
2651 502512 4796269
2652 502798 4796313
2653 502673 4796282
2654 502767 4796275
2655 502810 4796326
2656 497865 4786392
2657 497662 4786281
2658 497581 4786525
2659 497762 4786421
2660 497672 4786248
2661 497795 4786448
2662 497820 4786233
2663 497629 4786420
2664 497869 4786645
2665 497649 4786284
2666 497832 4786357
2667 497681 4786369
2668 497755 4786397
2669 497730 4786278
2670 497803 4786324
2671 497640 4786480
2672 497638 4786356
2673 497570 4786340
2674 497793 4786323
2675 497648 4786480
2676 497703 4786574
2677 497755 4786249
2678 497680 4786415
2679 497747 4786260
2680 497793 4786342
2681 497674 4786460
2682 497540 4786222
2683 497640 4786288
2684 497576 4786207
2685 497796 4786319
2686 497618 4786454
2687 497777 4786276
2688 497784 4786322
2689 497809 4786176
2690 497610 4786370
2691 497725 4786428
2692 497640 4786156
2693 497662 4786216
2694 497760 4786323
2695 497620 4786094
2696 497822 4786434
2697 497739 4786272
2698 497665 4786658
2699 497665 4786484
2700 497871 4786337
2701 496109 4788113
2702 496186 4788185
2703 496147 4787866
2704 496064 4787780
2705 496000 4788018
2706 496115 4788120
2707 496123 4788041
2708 496128 4788108
2709 496082 4788187
2710 496010 4787957
2711 496183 4788174
2712 496084 4788026
2713 496000 4788128
2714 496131 4788163
2715 496074 4787973
2716 496015 4788070
2717 496158 4787973
2718 496314 4787931
2719 496105 4788186
2720 496083 4788059
2721 496082 4788105
2722 496000 4787935
2723 496131 4788194
2724 496026 4788101
2725 496026 4788287
2726 496181 4788037
2727 496013 4787904
2728 496036 4788104
2729 496192 4788047
2730 496190 4788013
2731 496167 4788097
2732 496106 4788338
2733 496097 4787887
2734 496099 4788005
2735 496129 4787902
2736 496140 4788026
2737 496046 4788054
2738 496010 4787939
2739 496185 4787968
2740 496000 4787925
2741 496000 4788139
2742 496154 4787941
2743 496047 4788153
2744 496004 4787784
2745 496090 4788115
2746 503709 4788345
2747 503752 4788618
2748 503762 4788604
2749 503750 4788567
2750 503650 4788530
2751 503759 4788658
2752 503835 4788365
2753 503791 4788619
2754 503540 4788559
2755 503440 4788641
2756 503803 4788591
2757 503782 4788558
2758 503628 4788450
2759 503658 4788573
2760 503718 4788652
2761 503730 4788624
2762 503608 4788646
2763 503720 4788517
2764 503667 4788598
2765 503619 4788300
2766 503882 4788422
2767 503578 4788690
2768 503516 4788649
2769 503876 4788723
2770 503668 4788640
2771 503714 4788737
2772 503759 4788644
2773 503643 4788510
2774 503699 4788551
2775 503746 4788389
2776 503722 4788618
2777 503746 4788590
2778 503583 4788488
2779 503596 4788537
2780 503644 4788586
2781 503542 4788459
2782 503862 4788349
2783 503761 4788383
2784 503669 4788514
2785 503694 4788449
2786 503590 4788688
2787 503585 4788534
2788 503712 4788425
2789 503764 4788760
2790 503656 4788287
2791 502979 4795055
2792 503123 4795117
2793 502873 4794804
2794 503142 4794796
2795 503107 4794893
2796 503068 4794987
2797 503043 4794690
2798 503006 4795028
2799 502889 4794736
2800 503052 4794649
2801 502999 4794863
2802 502971 4794885
2803 502942 4794727
2804 503027 4794947
2805 502902 4794759
2806 503015 4794794
2807 503042 4794792
2808 502833 4794769
2809 502832 4795013
2810 502973 4794938
2811 502924 4794787
2812 502987 4794886
2813 502919 4794795
2814 503041 4795087
2815 503051 4794835
2816 502991 4794772
2817 502934 4795121
2818 503062 4794722
2819 502972 4794738
2820 502981 4794791
2821 502802 4794849
2822 502891 4794635
2823 502961 4794578
2824 503063 4795073
2825 502886 4794849
2826 502897 4794708
2827 503072 4794686
2828 503107 4794724
2829 503058 4794887
2830 503095 4794775
2831 502867 4794859
2832 502927 4794825
2833 502834 4794943
2834 502936 4794862
2835 502988 4794797
2836 503265 4791523
2837 503190 4791859
2838 503368 4791777
2839 503298 4791560
2840 503363 4791622
2841 503450 4791527
2842 503349 4791848
2843 503418 4791914
2844 503327 4791881
2845 503429 4791707
2846 503343 4791673
2847 503208 4791520
2848 503511 4792043
2849 503319 4791565
2850 503307 4791722
2851 503292 4791575
2852 503155 4791787
2853 503248 4791715
2854 503232 4791818
2855 503393 4792028
2856 503304 4791850
2857 503412 4791677
2858 503318 4792029
2859 503393 4791591
2860 503408 4791755
2861 503198 4791509
2862 503252 4791719
2863 503313 4791667
2864 503431 4791919
2865 503087 4791827
2866 503350 4791787
2867 503370 4791735
2868 503361 4791793
2869 503118 4791622
2870 503281 4791831
2871 503483 4791625
2872 503240 4791652
2873 503397 4791733
2874 503391 4791773
2875 503315 4792070
2876 503361 4791813
2877 503482 4791596
2878 503368 4791712
2879 503326 4791562
2880 503248 4791835
2881 497435 4787200
2882 497402 4787174
2883 497372 4787325
2884 497300 4786997
2885 497309 4787091
2886 497218 4786981
2887 497210 4787172
2888 497405 4787091
2889 497334 4786981
2890 497208 4787142
2891 497408 4787279
2892 497382 4787031
2893 497375 4787039
2894 497365 4787265
2895 497373 4787039
2896 497419 4787154
2897 497400 4787130
2898 497392 4786985
2899 497375 4787264
2900 497417 4787123
2901 497232 4787083
2902 497287 4787062
2903 497482 4787001
2904 497474 4787318
2905 497500 4787022
2906 497176 4787189
2907 497203 4786923
2908 497387 4787181
2909 497477 4787008
2910 497283 4787052
2911 497382 4787270
2912 497516 4787009
2913 497114 4787172
2914 497321 4787145
2915 497365 4787183
2916 497239 4787000
2917 497364 4787189
2918 497255 4787217
2919 497413 4787034
2920 497442 4787045
2921 497218 4787107
2922 497424 4787177
2923 497407 4787389
2924 497317 4787142
2925 497287 4787205
2926 504403 4795992
2927 504157 4796113
2928 504500 4795812
2929 504470 4795709
2930 504153 4796045
2931 504491 4795952
2932 504194 4795871
2933 504255 4795809
2934 504329 4795885
2935 504463 4795734
2936 504329 4795804
2937 504301 4796027
2938 504462 4796003
2939 504307 4795952
2940 504262 4795964
2941 504377 4795720
2942 504426 4795992
2943 504399 4796014
2944 504316 4796053
2945 504346 4796002
2946 504438 4795903
2947 504303 4795972
2948 504383 4796017
2949 504284 4796049
2950 504306 4795899
2951 504400 4795938
2952 504360 4796092
2953 504257 4795886
2954 504295 4796116
2955 504500 4795786
2956 504500 4795813
2957 504443 4795928
2958 504303 4796048
2959 504330 4795910
2960 504399 4796091
2961 504500 4795899
2962 504312 4796019
2963 504476 4795835
2964 504492 4795905
2965 504353 4795916
2966 504215 4795892
2967 504344 4795809
2968 504313 4795895
2969 504078 4795988
2970 504448 4795897
2971 500329 4797404
2972 500214 4797583
2973 500445 4797721
2974 500436 4797280
2975 500289 4797583
2976 500541 4797595
2977 500537 4797816
2978 500492 4797710
2979 500329 4797706
2980 500285 4797431
2981 500374 4797517
2982 500600 4797636
2983 500424 4797707
2984 500524 4797579
2985 500418 4797703
2986 500608 4797626
2987 500590 4797764
2988 500499 4797587
2989 500488 4797673
2990 500469 4797783
2991 500503 4797689
2992 500569 4797659
2993 500500 4797700
2994 500468 4797477
2995 500351 4797663
2996 500407 4797846
2997 500449 4797715
2998 500498 4797678
2999 500415 4797628
3000 500663 4797576
3001 500361 4797780
3002 500462 4797516
3003 500496 4797701
3004 500562 4797552
3005 500440 4797648
3006 500479 4797456
3007 500569 4797664
3008 500482 4797658
3009 500356 4797540
3010 500425 4797850
3011 500480 4797604
3012 500513 4797619
3013 500382 4797500
3014 500481 4797567
3015 500418 4797812
3016 496996 4792453
3017 497213 4791974
3018 496981 4792303
3019 497050 4792050
3020 497206 4792017
3021 496970 4792391
3022 497210 4792130
3023 497094 4792137
3024 497103 4792354
3025 497140 4792257
3026 497040 4792379
3027 497008 4792376
3028 497265 4792477
3029 497041 4791863
3030 496995 4792333
3031 497102 4792311
3032 497059 4792204
3033 496977 4792033
3034 497007 4792235
3035 496964 4792294
3036 497114 4792185
3037 497205 4792289
3038 497187 4792107
3039 497082 4792243
3040 497064 4792088
3041 497093 4792324
3042 497129 4792325
3043 497150 4792388
3044 497093 4792172
3045 497084 4792378
3046 497035 4792179
3047 497028 4792500
3048 497038 4792070
3049 497119 4792378
3050 496973 4792215
3051 497119 4792284
3052 497056 4792430
3053 497100 4791951
3054 496980 4792401
3055 496820 4792262
3056 497238 4792268
3057 497143 4792413
3058 496985 4792207
3059 496980 4792162
3060 497107 4792344
3061 502376 4791462
3062 502175 4791331
3063 502430 4791269
3064 502364 4791395
3065 502343 4791394
3066 502219 4791408
3067 502379 4791561
3068 502371 4791352
3069 502311 4791473
3070 502359 4791329
3071 502243 4791521
3072 502304 4791132
3073 502388 4791186
3074 502148 4791614
3075 502282 4791400
3076 502215 4791313
3077 502414 4791345
3078 502329 4791294
3079 502201 4791288
3080 502364 4791346
3081 502457 4791245
3082 502421 4791605
3083 502299 4791615
3084 502371 4791158
3085 502270 4791069
3086 502215 4791132
3087 502393 4791007
3088 502303 4791249
3089 502156 4791062
3090 502246 4791332
3091 502334 4791312
3092 502287 4791296
3093 502232 4791193
3094 502265 4791347
3095 502378 4791286
3096 502429 4791377
3097 502424 4791194
3098 502344 4791215
3099 502195 4791448
3100 502250 4791494
3101 502444 4791343
3102 502406 4791228
3103 502325 4791125
3104 502281 4791376
3105 502262 4791314
3106 499214 4787289
3107 499230 4787127
3108 499118 4787105
3109 499260 4787249
3110 499090 4786973
3111 499004 4786999
3112 499132 4787128
3113 499304 4787112
3114 499152 4787117
3115 499121 4787147
3116 499364 4787339
3117 499161 4787007
3118 499059 4787127
3119 499157 4787034
3120 499144 4787249
3121 499120 4787340
3122 499171 4787393
3123 499223 4786995
3124 499098 4787302
3125 499304 4786980
3126 499221 4787251
3127 499302 4787191
3128 499228 4787084
3129 499021 4787158
3130 499106 4786930
3131 499205 4787108
3132 499304 4787119
3133 499040 4787239
3134 499028 4787165
3135 499219 4786931
3136 499207 4787093
3137 499271 4787012
3138 499032 4787121
3139 499192 4787119
3140 499187 4787156
3141 499319 4787102
3142 499021 4787020
3143 499119 4787389
3144 499172 4787203
3145 499292 4787064
3146 499161 4787127
3147 499168 4787085
3148 499146 4787178
3149 499105 4787079
3150 499179 4787209
3151 497946 4786802
3152 497950 4786589
3153 498032 4786645
3154 497895 4786695
3155 497945 4786801
3156 498064 4787056
3157 497989 4786680
3158 498035 4786813
3159 498052 4786656
3160 498250 4786935
3161 498022 4786687
3162 497875 4786588
3163 498079 4786713
3164 498167 4786706
3165 498032 4786758
3166 497963 4786917
3167 497992 4786857
3168 498122 4786758
3169 497981 4786651
3170 498101 4786895
3171 498132 4786895
3172 497939 4786633
3173 498179 4786821
3174 497796 4786924
3175 497946 4786828
3176 497995 4786640
3177 498120 4786805
3178 498119 4786752
3179 498085 4786818
3180 497857 4786871
3181 498057 4786613
3182 497969 4786789
3183 498002 4786764
3184 498049 4786946
3185 498197 4786797
3186 498046 4786663
3187 498201 4786453
3188 498074 4786913
3189 498036 4786542
3190 498004 4786746
3191 498046 4786795
3192 498061 4786757
3193 498089 4786759
3194 498148 4786680
3195 497977 4786840
3196 497804 4789437
3197 497691 4789493
3198 497747 4789482
3199 497697 4789368
3200 497766 4789588
3201 497822 4789265
3202 497723 4789577
3203 497743 4789366
3204 497945 4789516
3205 497845 4789367
3206 497663 4789473
3207 497713 4789329
3208 497802 4789486
3209 497865 4789497
3210 497658 4789517
3211 497758 4789452
3212 497763 4789333
3213 497915 4789454
3214 497756 4789475
3215 497840 4789351
3216 497701 4789613
3217 497486 4789645
3218 497742 4789527
3219 497882 4789529
3220 497788 4789390
3221 497697 4789337
3222 497959 4789622
3223 497710 4789225
3224 497846 4789285
3225 497945 4789375
3226 497941 4789542
3227 497760 4789285
3228 497799 4789378
3229 497845 4789501
3230 497798 4789522
3231 497830 4789516
3232 497817 4789598
3233 498061 4789445
3234 497761 4789259
3235 497754 4789319
3236 497959 4789514
3237 497703 4789535
3238 497842 4789602
3239 497731 4789350
3240 497866 4789305
3241 498145 4792200
3242 498236 4792285
3243 498244 4792186
3244 498279 4792148
3245 498429 4792290
3246 498283 4792226
3247 497979 4792114
3248 498049 4792381
3249 498249 4792212
3250 498301 4792222
3251 498390 4791951
3252 498295 4792125
3253 498292 4792035
3254 498270 4792287
3255 498249 4792262
3256 498236 4791874
3257 498324 4792361
3258 498372 4792177
3259 498383 4792236
3260 498322 4792092
3261 498180 4792295
3262 498298 4792076
3263 498274 4792395
3264 498264 4792168
3265 498344 4792192
3266 498118 4792189
3267 498395 4792101
3268 498382 4792259
3269 498414 4792166
3270 498294 4792253
3271 498252 4792109
3272 498252 4791925
3273 498257 4792149
3274 498221 4791968
3275 498387 4792116
3276 498294 4792260
3277 498206 4792182
3278 498278 4792260
3279 498273 4792224
3280 498284 4792291
3281 498216 4792373
3282 498380 4792364
3283 498272 4792152
3284 498284 4792209
3285 498230 4792442
3286 498328 4788609
3287 498572 4788615
3288 498537 4788616
3289 498410 4788671
3290 498540 4788607
3291 498682 4788741
3292 498683 4788819
3293 498664 4788731
3294 498364 4788645
3295 498570 4788563
3296 498566 4788722
3297 498631 4788611
3298 498646 4788852
3299 498683 4788861
3300 498599 4788706
3301 498677 4788898
3302 498638 4788879
3303 498676 4788569
3304 498665 4788714
3305 498664 4788627
3306 498589 4788714
3307 498550 4788565
3308 498610 4788694
3309 498693 4788648
3310 498529 4788734
3311 498492 4788531
3312 498625 4788823
3313 498795 4788761
3314 498603 4788778
3315 498546 4788682
3316 498702 4788447
3317 498571 4788676
3318 498573 4788654
3319 498792 4788647
3320 498530 4788870
3321 498580 4788824
3322 498482 4788849
3323 498698 4788716
3324 498750 4788488
3325 498554 4788782
3326 498568 4788711
3327 498583 4788717
3328 498569 4788869
3329 498698 4788763
3330 498540 4788525
3331 503242 4797408
3332 503373 4797461
3333 503349 4797345
3334 503356 4797235
3335 503311 4797352
3336 503403 4797378
3337 503316 4797228
3338 503285 4797164
3339 503563 4797097
3340 503433 4797340
3341 503396 4797460
3342 503411 4797602
3343 503364 4797274
3344 503339 4797124
3345 503341 4797310
3346 503328 4797336
3347 503369 4797051
3348 503336 4797306
3349 503325 4797235
3350 503490 4797363
3351 503427 4797296
3352 503495 4797401
3353 503247 4797276
3354 503507 4797352
3355 503429 4797393
3356 503477 4797356
3357 503485 4797075
3358 503521 4797252
3359 503365 4796990
3360 503437 4797459
3361 503501 4797352
3362 503438 4797267
3363 503343 4797370
3364 503342 4797305
3365 503386 4797378
3366 503376 4797277
3367 503399 4797533
3368 503265 4797112
3369 503528 4797145
3370 503357 4797403
3371 503270 4797414
3372 503515 4797416
3373 503286 4797353
3374 503428 4797225
3375 503422 4797019
3376 496619 4789421
3377 496798 4789481
3378 496645 4789562
3379 496624 4789832
3380 496807 4789470
3381 496541 4789743
3382 496621 4789510
3383 496688 4789717
3384 496681 4789390
3385 496831 4789568
3386 496781 4789595
3387 496696 4789636
3388 496648 4789618
3389 496649 4789495
3390 496719 4789566
3391 496613 4789533
3392 496747 4789597
3393 496596 4789679
3394 496791 4789674
3395 496846 4789689
3396 496639 4789796
3397 496749 4789692
3398 496864 4789470
3399 496670 4789643
3400 496720 4789561
3401 496647 4789608
3402 496667 4789766
3403 496673 4789713
3404 496626 4789759
3405 496679 4789656
3406 496579 4789702
3407 496644 4789499
3408 496615 4789389
3409 496481 4789803
3410 496742 4789576
3411 496801 4789521
3412 496701 4789614
3413 496728 4789492
3414 496683 4789509
3415 496845 4789570
3416 496688 4789720
3417 496873 4789473
3418 496696 4789594
3419 496616 4789385
3420 496861 4789290
3421 500496 4790569
3422 500324 4791001
3423 500317 4790852
3424 500276 4790794
3425 500470 4791060
3426 500465 4790748
3427 500279 4790912
3428 500345 4790841
3429 500366 4790718
3430 500236 4790797
3431 500156 4790896
3432 500327 4790598
3433 500204 4790613
3434 500259 4790572
3435 500305 4790643
3436 500453 4790624
3437 500336 4790734
3438 500318 4790645
3439 500419 4790767
3440 500418 4790863
3441 500417 4790609
3442 500333 4790759
3443 500317 4790791
3444 500220 4790649
3445 500275 4790727
3446 500219 4790561
3447 500341 4790701
3448 500403 4790697
3449 500250 4791075
3450 500262 4790631
3451 500293 4790798
3452 500266 4790859
3453 500250 4790875
3454 500381 4790784
3455 500389 4790760
3456 500232 4790630
3457 500305 4790778
3458 500409 4790833
3459 500272 4790743
3460 500352 4790678
3461 500351 4791088
3462 500404 4790794
3463 500327 4790985
3464 500243 4790745
3465 500433 4790650
3466 500296 4789340
3467 500258 4789136
3468 500197 4789182
3469 500086 4789324
3470 500327 4789139
3471 500238 4789430
3472 500014 4789450
3473 500217 4789214
3474 500179 4789197
3475 500222 4789188
3476 500169 4789248
3477 500071 4789178
3478 500187 4789158
3479 500151 4789109
3480 500228 4789300
3481 500263 4789111
3482 500268 4789156
3483 500239 4789266
3484 500153 4789217
3485 500067 4789122
3486 500061 4789175
3487 500120 4789230
3488 500153 4789184
3489 500200 4789050
3490 500273 4789590
3491 500020 4789521
3492 500017 4789363
3493 500169 4789257
3494 500311 4789149
3495 500170 4789188
3496 500223 4789005
3497 500164 4789415
3498 500332 4789027
3499 500139 4789127
3500 500180 4789233
3501 500165 4789099
3502 500056 4789013
3503 500145 4789444
3504 500331 4789248
3505 500313 4789250
3506 500147 4789306
3507 500061 4789315
3508 500236 4789122
3509 500319 4789254
3510 500346 4789233
3511 499295 4787968
3512 499337 4787931
3513 499424 4788132
3514 499438 4787970
3515 499456 4787799
3516 499229 4787915
3517 499437 4788214
3518 499471 4788087
3519 499421 4788197
3520 499331 4787888
3521 499244 4787769
3522 499372 4788067
3523 499336 4787976
3524 499333 4788019
3525 499451 4787921
3526 499264 4788190
3527 499335 4787715
3528 499375 4787886
3529 499308 4788062
3530 499375 4788019
3531 499331 4787865
3532 499351 4787843
3533 499314 4788008
3534 499469 4788015
3535 499341 4787942
3536 499278 4788016
3537 499411 4787744
3538 499480 4787922
3539 499459 4788199
3540 499343 4788027
3541 499302 4787768
3542 499471 4787848
3543 499414 4788088
3544 499408 4787834
3545 499516 4787869
3546 499464 4787867
3547 499408 4787883
3548 499395 4787993
3549 499314 4787969
3550 499347 4787939
3551 499394 4787606
3552 499422 4788265
3553 499399 4788068
3554 499363 4787828
3555 499464 4787937
3556 500162 4792750
3557 500105 4792866
3558 500038 4792759
3559 500144 4792909
3560 500188 4792800
3561 500147 4792968
3562 500075 4792791
3563 500136 4792913
3564 500291 4792805
3565 500116 4793007
3566 500121 4792799
3567 500215 4792776
3568 500261 4792973
3569 500025 4792877
3570 500100 4792986
3571 500061 4792879
3572 500152 4792849
3573 500257 4793021
3574 500087 4792919
3575 499922 4792849
3576 500275 4793026
3577 500093 4793247
3578 500322 4792967
3579 500243 4792706
3580 500144 4792912
3581 500218 4793055
3582 500254 4792980
3583 500130 4793136
3584 500239 4792858
3585 500056 4792733
3586 500096 4792779
3587 500053 4792768
3588 500265 4793192
3589 500098 4792867
3590 500223 4792862
3591 500298 4792864
3592 500158 4792763
3593 500304 4792864
3594 500295 4792792
3595 500164 4793018
3596 500199 4793032
3597 500214 4792735
3598 500107 4792855
3599 500193 4793103
3600 500125 4793122
3601 499172 4797180
3602 499060 4797092
3603 499063 4797033
3604 498971 4797024
3605 498852 4797102
3606 499120 4797181
3607 499025 4797141
3608 499107 4797003
3609 499093 4796928
3610 499204 4797049
3611 498948 4797178
3612 498859 4796942
3613 499108 4796919
3614 499112 4797020
3615 498950 4797067
3616 498988 4797061
3617 499012 4797130
3618 499217 4797020
3619 499185 4797409
3620 499140 4797050
3621 499037 4797011
3622 499140 4797259
3623 499142 4797113
3624 499038 4797075
3625 499181 4797187
3626 499099 4797151
3627 499125 4797277
3628 499132 4797017
3629 499226 4797293
3630 499028 4797211
3631 498951 4796951
3632 499094 4797198
3633 499170 4797143
3634 499020 4797012
3635 499009 4797057
3636 499077 4797080
3637 498882 4797165
3638 499038 4797158
3639 499150 4796979
3640 499059 4797100
3641 499045 4796986
3642 499130 4796941
3643 498933 4796990
3644 499141 4796984
3645 499016 4797118
3646 500986 4797463
3647 500928 4797281
3648 501035 4797465
3649 501019 4797545
3650 500874 4797404
3651 501083 4797292
3652 501220 4797409
3653 501052 4797302
3654 501099 4797287
3655 501070 4797503
3656 501026 4797245
3657 501124 4797089
3658 501043 4797398
3659 500989 4797417
3660 500994 4797403
3661 501045 4797213
3662 501119 4797253
3663 500986 4797371
3664 500985 4797345
3665 500994 4797208
3666 501046 4797291
3667 501011 4797433
3668 500953 4797345
3669 500976 4797325
3670 501105 4797448
3671 501068 4797301
3672 500899 4797530
3673 501066 4797320
3674 501103 4797168
3675 500954 4797296
3676 500893 4797299
3677 501000 4797108
3678 501160 4797395
3679 501075 4797290
3680 500942 4797450
3681 501115 4797408
3682 500952 4797246
3683 500956 4797479
3684 501125 4797301
3685 501038 4797365
3686 500926 4797401
3687 501095 4797377
3688 500887 4797289
3689 501029 4797377
3690 500920 4797440
3691 501702 4793493
3692 501400 4793683
3693 501573 4793557
3694 501362 4793563
3695 501419 4793603
3696 501452 4793587
3697 501438 4793567
3698 501288 4793563
3699 501529 4793663
3700 501538 4793608
3701 501719 4793646
3702 501576 4793879
3703 501631 4793568
3704 501628 4793527
3705 501498 4793818
3706 501453 4793589
3707 501558 4794004
3708 501512 4793540
3709 501474 4793456
3710 501564 4793595
3711 501622 4793490
3712 501396 4793804
3713 501418 4793482
3714 501415 4793520
3715 501550 4793712
3716 501478 4793618
3717 501495 4793788
3718 501432 4793536
3719 501539 4793575
3720 501537 4793594
3721 501542 4793514
3722 501496 4793638
3723 501419 4793337
3724 501416 4793533
3725 501514 4793700
3726 501636 4793646
3727 501528 4793571
3728 501582 4793438
3729 501512 4793501
3730 501416 4793416
3731 501369 4793581
3732 501528 4793502
3733 501605 4793562
3734 501434 4793397
3735 501518 4793807
3736 500534 4791731
3737 500648 4791711
3738 500553 4791632
3739 500761 4791958
3740 500640 4791938
3741 500600 4791884
3742 500604 4791927
3743 500618 4791945
3744 500510 4791916
3745 500632 4791989
3746 500610 4791760
3747 500593 4791799
3748 500577 4792035
3749 500529 4791623
3750 500641 4791882
3751 500584 4791961
3752 500609 4791581
3753 500696 4791572
3754 500549 4791784
3755 500340 4791990
3756 500687 4791960
3757 500648 4791752
3758 500543 4791781
3759 500683 4791715
3760 500630 4791764
3761 500703 4791725
3762 500492 4791814
3763 500549 4791780
3764 500551 4791819
3765 500592 4791979
3766 500577 4791689
3767 500493 4792145
3768 500646 4791808
3769 500699 4791967
3770 500664 4791903
3771 500461 4792044
3772 500592 4791803
3773 500627 4791836
3774 500594 4791899
3775 500411 4791738
3776 500390 4791585
3777 500431 4791647
3778 500624 4791802
3779 500509 4791853
3780 500507 4792137
3781 502868 4793137
3782 502730 4792805
3783 502719 4793006
3784 502748 4792854
3785 502911 4793094
3786 502768 4792857
3787 502685 4792977
3788 502822 4792929
3789 502745 4792886
3790 502953 4792870
3791 502855 4793046
3792 502553 4792901
3793 502789 4792897
3794 502819 4792897
3795 502831 4793118
3796 502978 4792855
3797 502852 4793099
3798 502935 4792967
3799 502818 4792834
3800 502722 4792981
3801 502967 4793022
3802 502960 4793096
3803 502802 4792846
3804 502812 4792915
3805 502585 4793070
3806 502876 4793070
3807 502757 4792936
3808 502904 4792722
3809 502894 4792967
3810 502979 4792993
3811 503003 4792854
3812 502818 4793263
3813 502821 4792824
3814 502835 4792872
3815 502807 4792954
3816 502760 4793176
3817 502852 4792750
3818 502928 4792986
3819 502848 4793035
3820 502826 4793222
3821 502960 4792997
3822 502752 4793340
3823 502924 4793093
3824 502868 4792945
3825 502879 4793032
3826 504147 4795908
3827 504111 4795689
3828 504257 4795940
3829 504109 4795758
3830 504174 4795700
3831 504202 4795817
3832 504288 4795926
3833 504091 4795763
3834 504116 4795992
3835 504095 4795869
3836 504254 4796025
3837 504179 4795740
3838 504193 4795864
3839 504243 4796001
3840 504111 4796055
3841 504233 4796075
3842 504047 4795781
3843 504246 4795946
3844 504156 4795777
3845 503957 4796083
3846 504180 4796178
3847 504215 4795994
3848 504172 4795948
3849 504175 4796009
3850 504265 4795818
3851 504143 4795889
3852 504326 4795736
3853 504108 4795845
3854 504063 4795992
3855 504250 4795917
3856 504320 4796097
3857 504249 4795767
3858 504225 4795840
3859 504128 4796003
3860 504140 4795912
3861 504179 4795949
3862 504134 4795902
3863 504198 4795820
3864 504017 4795766
3865 504104 4796072
3866 504202 4796102
3867 504008 4795876
3868 504176 4795922
3869 504169 4796156
3870 503951 4795730
3871 498388 4786294
3872 498474 4786236
3873 498528 4786088
3874 498547 4786066
3875 498318 4786203
3876 498390 4786169
3877 498443 4786202
3878 498365 4786000
3879 498545 4786042
3880 498357 4786000
3881 498473 4786039
3882 498483 4786108
3883 498422 4786072
3884 498442 4786322
3885 498588 4786000
3886 498407 4786000
3887 498293 4786321
3888 498413 4786176
3889 498461 4786094
3890 498366 4786065
3891 498427 4786091
3892 498440 4786000
3893 498449 4786141
3894 498517 4786141
3895 498398 4786115
3896 498432 4786207
3897 498451 4786377
3898 498361 4786012
3899 498528 4786130
3900 498407 4786196
3901 498330 4786094
3902 498522 4786312
3903 498436 4786040
3904 498514 4786202
3905 498553 4786095
3906 498441 4786058
3907 498444 4786000
3908 498696 4786023
3909 498386 4786079
3910 498614 4786179
3911 498406 4786040
3912 498474 4786129
3913 498374 4786000
3914 498510 4786057
3915 498384 4786115
3916 502628 4786732
3917 502573 4786462
3918 502506 4786555
3919 502493 4786364
3920 502546 4786554
3921 502427 4786560
3922 502572 4786858
3923 502522 4786745
3924 502643 4786607
3925 502686 4786834
3926 502610 4786703
3927 502601 4786619
3928 502494 4786389
3929 502778 4786705
3930 502593 4786692
3931 502632 4786677
3932 502535 4786656
3933 502526 4786552
3934 502474 4786569
3935 502554 4786736
3936 502515 4786583
3937 502427 4786705
3938 502467 4786645
3939 502555 4786612
3940 502427 4786511
3941 502515 4786528
3942 502623 4786620
3943 502595 4786845
3944 502503 4786527
3945 502496 4786724
3946 502599 4786905
3947 502413 4786582
3948 502717 4786721
3949 502482 4786879
3950 502400 4786464
3951 502642 4786839
3952 502512 4786500
3953 502472 4786508
3954 502562 4786762
3955 502553 4786552
3956 502529 4786602
3957 502711 4786722
3958 502422 4786647
3959 502560 4786397
3960 502520 4786673
3961 498365 4789954
3962 498555 4790015
3963 498545 4789920
3964 498494 4789954
3965 498500 4790042
3966 498537 4790216
3967 498481 4789934
3968 498611 4789885
3969 498478 4790038
3970 498457 4789999
3971 498510 4790049
3972 498528 4789992
3973 498386 4790314
3974 498453 4790034
3975 498620 4790024
3976 498487 4789804
3977 498445 4789967
3978 498478 4789864
3979 498559 4789674
3980 498406 4790046
3981 498586 4789826
3982 498611 4789678
3983 498312 4790139
3984 498476 4790062
3985 498382 4790108
3986 498423 4790009
3987 498514 4789928
3988 498531 4789935
3989 498537 4789926
3990 498462 4790060
3991 498405 4789900
3992 498665 4790148
3993 498641 4789907
3994 498366 4789961
3995 498493 4790095
3996 498450 4790019
3997 498354 4789793
3998 498406 4789917
3999 498504 4790003
4000 498602 4789907
4001 498665 4789917
4002 498529 4789957
4003 498581 4789722
4004 498492 4790037
4005 498497 4789820
4006 500975 4788497
4007 501247 4788540
4008 501091 4788578
4009 501089 4788609
4010 501166 4788636
4011 500977 4788509
4012 501114 4788479
4013 501124 4788555
4014 501032 4788546
4015 500991 4788427
4016 501138 4788480
4017 501254 4788570
4018 501047 4788686
4019 501087 4788557
4020 501208 4788564
4021 501101 4788756
4022 501006 4788538
4023 501028 4788396
4024 501110 4788443
4025 501027 4788306
4026 501090 4788906
4027 500959 4788570
4028 501172 4788594
4029 501177 4788625
4030 501117 4788582
4031 501176 4788508
4032 501120 4788562
4033 501113 4788590
4034 501146 4788493
4035 501127 4788420
4036 501075 4788572
4037 501181 4788570
4038 501130 4788548
4039 501026 4788633
4040 501122 4788479
4041 501032 4788672
4042 501139 4788786
4043 501123 4788633
4044 501010 4788381
4045 501129 4788435
4046 501024 4788374
4047 501059 4788447
4048 501031 4788531
4049 500943 4788538
4050 501137 4788657
4051 502726 4797119
4052 502719 4797175
4053 502757 4797082
4054 502782 4796966
4055 502856 4797209
4056 502787 4797091
4057 502684 4797196
4058 502735 4797026
4059 502830 4797225
4060 502860 4797304
4061 502930 4797214
4062 502760 4796917
4063 502805 4797108
4064 502674 4797160
4065 502702 4796968
4066 502806 4797103
4067 502745 4796998
4068 502682 4796823
4069 502780 4797149
4070 502717 4797038
4071 502741 4796905
4072 502871 4797003
4073 502729 4797144
4074 502684 4797112
4075 502753 4797114
4076 502758 4797022
4077 502713 4796938
4078 502902 4796988
4079 502783 4797327
4080 502579 4797229
4081 502818 4797090
4082 502691 4797119
4083 502899 4796895
4084 502858 4797183
4085 502774 4797028
4086 502792 4797078
4087 502702 4796996
4088 502764 4796854
4089 502793 4796998
4090 502778 4797268
4091 502841 4797144
4092 502815 4797066
4093 502685 4797191
4094 502761 4796975
4095 502824 4797072
4096 504100 4790096
4097 504235 4790199
4098 504088 4790031
4099 504100 4789946
4100 504042 4789759
4101 504130 4789975
4102 504274 4790038
4103 504209 4789735
4104 504131 4789891
4105 504106 4790006
4106 504119 4789839
4107 504315 4789956
4108 504202 4789870
4109 504232 4790086
4110 504047 4790027
4111 504158 4789980
4112 504041 4789913
4113 504111 4789795
4114 504274 4789955
4115 504152 4789840
4116 504152 4789846
4117 504172 4790198
4118 504016 4790195
4119 504082 4790227
4120 504092 4790083
4121 504206 4789738
4122 504156 4790145
4123 504187 4790149
4124 504256 4790015
4125 504232 4789945
4126 504089 4789951
4127 504082 4789920
4128 504162 4789871
4129 504174 4789913
4130 504179 4789857
4131 504149 4789826
4132 504210 4789851
4133 504172 4790004
4134 504170 4790020
4135 504244 4789631
4136 504042 4789924
4137 504193 4790000
4138 504145 4790074
4139 504192 4790102
4140 504068 4789870
4141 500945 4792181
4142 500863 4792347
4143 500947 4792404
4144 500895 4792237
4145 501004 4792076
4146 501114 4792287
4147 500995 4792185
4148 500954 4792189
4149 500914 4792401
4150 500999 4792172
4151 500989 4792169
4152 500876 4792111
4153 501172 4792354
4154 501063 4792351
4155 500970 4792190
4156 501011 4792065
4157 501077 4792159
4158 500951 4792106
4159 500981 4792136
4160 501128 4792370
4161 501040 4792002
4162 501114 4792173
4163 500939 4792146
4164 500787 4792021
4165 501069 4792279
4166 501031 4792400
4167 500925 4792219
4168 500979 4792261
4169 501092 4792286
4170 500964 4792180
4171 500887 4792392
4172 500982 4792252
4173 500970 4792247
4174 500988 4792201
4175 500980 4792209
4176 500934 4792337
4177 501020 4792112
4178 500967 4792127
4179 500891 4792099
4180 500927 4792341
4181 500980 4792154
4182 500737 4792281
4183 501010 4792458
4184 500970 4792283
4185 500878 4792457
4186 499687 4795419
4187 499593 4795295
4188 499625 4795299
4189 499681 4795414
4190 499826 4795265
4191 499743 4795121
4192 499883 4795142
4193 499768 4795115
4194 499669 4795066
4195 499658 4795195
4196 499573 4795250
4197 499795 4795217
4198 499517 4795028
4199 499737 4795254
4200 499776 4795205
4201 499653 4795085
4202 499642 4795204
4203 499762 4795185
4204 499609 4795358
4205 499704 4795226
4206 499682 4795147
4207 499735 4795150
4208 499503 4795257
4209 499627 4795153
4210 499768 4795036
4211 499765 4795145
4212 499511 4795356
4213 499537 4795203
4214 499769 4795264
4215 499480 4795332
4216 499567 4795057
4217 499780 4795306
4218 499760 4795339
4219 499674 4795221
4220 499663 4795212
4221 499555 4795261
4222 499600 4794941
4223 499757 4795473
4224 499833 4795296
4225 499619 4795323
4226 499696 4795290
4227 499589 4795149
4228 499654 4795368
4229 499530 4795383
4230 499564 4795440
4231 498120 4792063
4232 498152 4792328
4233 498149 4792185
4234 497953 4792325
4235 497949 4792289
4236 498030 4792211
4237 498044 4792386
4238 498130 4792491
4239 498031 4792191
4240 498233 4792556
4241 498121 4792172
4242 498095 4792240
4243 498140 4792147
4244 498131 4792146
4245 498145 4792234
4246 498047 4792218
4247 497999 4792327
4248 498168 4792215
4249 498150 4792137
4250 498109 4792201
4251 498126 4792284
4252 498072 4792152
4253 497966 4792299
4254 498126 4792082
4255 497939 4792187
4256 498139 4792300
4257 498177 4792248
4258 498028 4792240
4259 498091 4792124
4260 498058 4792149
4261 498156 4792334
4262 497778 4792391
4263 497949 4792131
4264 498126 4792149
4265 498044 4792368
4266 497991 4792458
4267 498056 4792361
4268 498132 4792338
4269 498045 4792375
4270 498017 4792253
4271 498132 4792214
4272 498046 4792268
4273 498100 4792366
4274 498183 4792219
4275 498224 4792411
4276 501753 4790472
4277 501688 4790223
4278 501796 4790436
4279 501631 4790385
4280 501719 4790385
4281 501710 4790300
4282 501605 4790341
4283 501823 4790301
4284 501745 4790305
4285 501723 4790584
4286 501810 4790163
4287 501767 4790277
4288 501501 4790346
4289 501726 4790430
4290 501723 4790475
4291 501788 4790483
4292 501642 4790427
4293 501631 4790455
4294 501673 4790243
4295 501678 4790410
4296 501703 4790362
4297 501765 4790128
4298 501702 4790514
4299 501802 4790318
4300 501622 4790532
4301 501690 4790186
4302 501825 4790156
4303 501697 4790480
4304 501830 4790381
4305 501864 4790286
4306 501799 4790403
4307 501694 4790257
4308 501727 4790346
4309 501671 4790227
4310 501653 4790256
4311 501766 4790547
4312 501828 4790349
4313 501752 4790396
4314 501801 4790161
4315 501764 4790178
4316 501610 4790423
4317 501804 4790334
4318 501786 4790387
4319 501647 4790369
4320 501847 4790255
4321 500751 4793275
4322 500928 4793326
4323 500974 4793352
4324 500953 4793387
4325 500818 4793515
4326 500773 4793602
4327 500812 4793430
4328 500819 4793417
4329 500876 4793291
4330 500883 4793390
4331 500771 4793225
4332 500864 4793312
4333 501015 4793563
4334 500702 4793230
4335 500790 4793426
4336 501008 4793466
4337 500924 4793599
4338 500788 4793588
4339 500916 4793313
4340 500971 4793497
4341 500774 4793490
4342 500724 4793300
4343 500893 4793566
4344 500876 4793334
4345 500873 4793449
4346 500860 4793357
4347 500831 4793556
4348 500806 4793507
4349 500656 4793449
4350 500984 4793227
4351 500777 4793507
4352 500899 4793257
4353 500863 4793263
4354 500850 4793346
4355 500853 4793592
4356 500820 4793413
4357 501024 4793310
4358 500894 4793353
4359 500861 4793455
4360 500851 4793203
4361 500778 4793243
4362 500715 4793366
4363 500734 4793446
4364 500747 4793410
4365 500864 4793559
4366 501263 4791263
4367 501170 4790938
4368 501147 4791057
4369 501214 4790826
4370 501332 4791014
4371 501262 4790983
4372 501346 4791036
4373 501196 4791075
4374 501109 4790844
4375 501259 4790919
4376 501221 4790962
4377 501367 4791068
4378 501215 4790987
4379 501329 4790950
4380 501132 4790975
4381 501123 4791113
4382 501240 4790793
4383 501125 4791028
4384 501243 4791047
4385 501108 4790970
4386 501163 4790845
4387 501218 4790888
4388 501118 4791045
4389 501174 4791052
4390 501157 4791140
4391 501025 4791114
4392 501210 4790830
4393 501211 4790888
4394 501226 4790866
4395 501211 4791197
4396 501072 4791052
4397 501133 4790998
4398 501246 4790937
4399 501159 4790959
4400 501096 4791213
4401 501107 4791237
4402 501285 4790995
4403 501173 4790974
4404 501258 4791031
4405 501148 4790951
4406 501191 4791024
4407 501148 4791077
4408 501163 4790832
4409 501186 4790934
4410 501124 4790803
4411 502669 4794937
4412 502598 4795144
4413 502652 4795133
4414 502631 4795257
4415 502659 4795406
4416 502620 4795276
4417 502564 4794994
4418 502602 4795446
4419 502671 4795049
4420 502604 4795416
4421 502589 4795086
4422 502745 4795264
4423 502584 4795345
4424 502488 4795213
4425 502619 4795369
4426 502571 4795254
4427 502615 4795222
4428 502585 4795343
4429 502586 4795091
4430 502717 4795235
4431 502675 4795203
4432 502695 4794957
4433 502462 4795343
4434 502665 4795209
4435 502584 4795364
4436 502521 4795168
4437 502624 4795343
4438 502589 4795253
4439 502534 4795216
4440 502610 4795567
4441 502577 4795103
4442 502589 4795277
4443 502543 4795302
4444 502700 4794980
4445 502690 4795369
4446 502561 4795305
4447 502577 4795382
4448 502688 4795271
4449 502489 4794993
4450 502675 4795199
4451 502636 4795437
4452 502632 4795120
4453 502584 4795311
4454 502587 4795232
4455 502673 4795247
4456 496901 4786829
4457 496952 4786893
4458 497010 4787075
4459 497041 4787041
4460 496961 4787010
4461 496999 4786884
4462 497008 4787029
4463 497011 4786948
4464 497059 4786976
4465 496916 4786811
4466 496957 4786877
4467 496952 4786784
4468 496864 4787061
4469 497033 4786857
4470 496879 4787062
4471 497016 4786757
4472 496899 4786896
4473 496830 4787180
4474 496902 4786920
4475 496978 4786915
4476 496980 4786828
4477 496940 4786793
4478 496890 4786781
4479 496909 4786779
4480 497029 4786783
4481 497038 4786732
4482 496929 4786997
4483 496936 4786824
4484 496962 4786896
4485 497089 4786851
4486 496984 4787005
4487 496972 4786883
4488 497073 4786837
4489 496968 4787049
4490 497004 4786967
4491 496784 4786943
4492 497036 4786872
4493 497040 4786700
4494 496879 4786953
4495 497158 4786644
4496 496898 4786982
4497 496896 4786931
4498 496969 4787012
4499 496959 4787046
4500 497013 4786985
4501 497348 4795511
4502 497300 4795573
4503 497479 4795497
4504 497243 4795357
4505 497356 4795251
4506 497221 4795478
4507 497401 4795304
4508 497214 4795297
4509 497369 4795206
4510 497340 4795211
4511 497292 4795077
4512 497297 4795514
4513 497343 4795325
4514 497353 4795246
4515 497300 4795377
4516 497407 4795570
4517 497367 4795179
4518 497338 4795375
4519 497348 4795425
4520 497253 4795357
4521 497387 4795361
4522 497379 4795540
4523 497209 4795297
4524 497385 4795541
4525 497273 4795253
4526 497345 4795404
4527 497363 4795581
4528 497153 4795691
4529 497471 4795366
4530 497424 4795255
4531 497359 4795157
4532 497369 4795395
4533 497398 4795280
4534 497158 4795419
4535 497308 4795455
4536 497274 4795272
4537 497269 4795614
4538 497248 4795556
4539 497213 4795434
4540 497375 4795299
4541 497369 4795309
4542 497440 4795422
4543 497381 4795362
4544 497419 4795493
4545 497456 4795370
4546 499625 4790637
4547 499693 4790354
4548 499566 4790460
4549 499753 4790322
4550 499717 4790205
4551 499775 4790608
4552 499715 4790330
4553 499554 4790497
4554 499525 4790409
4555 499805 4790481
4556 499702 4790646
4557 499668 4790479
4558 499683 4790416
4559 499658 4790291
4560 499610 4790383
4561 499725 4790528
4562 499692 4790345
4563 499488 4790259
4564 499747 4790456
4565 499721 4790350
4566 499751 4790465
4567 499657 4790665
4568 499854 4790348
4569 499687 4790474
4570 499658 4790223
4571 499652 4790360
4572 499633 4790419
4573 499747 4790601
4574 499650 4790298
4575 499639 4790426
4576 499739 4790357
4577 499680 4790420
4578 499799 4790365
4579 499766 4790358
4580 499605 4790419
4581 499650 4790445
4582 499734 4790459
4583 499581 4790237
4584 499575 4790512
4585 499877 4790386
4586 499632 4790754
4587 499674 4790382
4588 499579 4790317
4589 499693 4790378
4590 499712 4790310
4591 499788 4796072
4592 499910 4796274
4593 499699 4796353
4594 499766 4796320
4595 499722 4796062
4596 499909 4796319
4597 499854 4796094
4598 499616 4796283
4599 499837 4796203
4600 499798 4796268
4601 499862 4796098
4602 499616 4796292
4603 499738 4796349
4604 499792 4795956
4605 499881 4796346
4606 499942 4796202
4607 499783 4796213
4608 499821 4796110
4609 499727 4796234
4610 499928 4796153
4611 499839 4796085
4612 499622 4796391
4613 499750 4796186
4614 499957 4796226
4615 499808 4796126
4616 499737 4796231
4617 499799 4796153
4618 499930 4796223
4619 499609 4796109
4620 499944 4796030
4621 499837 4796336
4622 499794 4796417
4623 499738 4796189
4624 499672 4796061
4625 499684 4796063
4626 499756 4796127
4627 499844 4796150
4628 499705 4796307
4629 499676 4796181
4630 499769 4796302
4631 499860 4796202
4632 499759 4796343
4633 499900 4796285
4634 499794 4796249
4635 499983 4796211
4636 504063 4796966
4637 504128 4796891
4638 504089 4796930
4639 503949 4796952
4640 504028 4796823
4641 504129 4796998
4642 504189 4796953
4643 504165 4797074
4644 504020 4797226
4645 504072 4796768
4646 504064 4797016
4647 504168 4796886
4648 504021 4796804
4649 504070 4796915
4650 504115 4796895
4651 504236 4797108
4652 503987 4797237
4653 504070 4796799
4654 503857 4797072
4655 504160 4797063
4656 504037 4796991
4657 504035 4797086
4658 504145 4797039
4659 503938 4797220
4660 504006 4796858
4661 504001 4797163
4662 503967 4796883
4663 504173 4796998
4664 504075 4797161
4665 503969 4797235
4666 503986 4796973
4667 504048 4796814
4668 504077 4796806
4669 504157 4797002
4670 504040 4797055
4671 504061 4796992
4672 504040 4796970
4673 504149 4797225
4674 504197 4797076
4675 504267 4797135
4676 504062 4797115
4677 504094 4797080
4678 504094 4796966
4679 503993 4797258
4680 503988 4796822
4681 503952 4794248
4682 504011 4794295
4683 504146 4794131
4684 504055 4794438
4685 503977 4794368
4686 504069 4794355
4687 503979 4794402
4688 504089 4794272
4689 504037 4794379
4690 504062 4794382
4691 503990 4794335
4692 504013 4794599
4693 504128 4794581
4694 504072 4794283
4695 503981 4794482
4696 504058 4794515
4697 503884 4794546
4698 504100 4794356
4699 504078 4794413
4700 504037 4794513
4701 504102 4794263
4702 503972 4794356
4703 503960 4794476
4704 504112 4794274
4705 504003 4794324
4706 503911 4794150
4707 503947 4794369
4708 503997 4794389
4709 504158 4794508
4710 504135 4794528
4711 504012 4794278
4712 504099 4794710
4713 503856 4794343
4714 504025 4794428
4715 503957 4794280
4716 504055 4794435
4717 504114 4794515
4718 504040 4794451
4719 504010 4794459
4720 504113 4794397
4721 503806 4794413
4722 504129 4794263
4723 504043 4794479
4724 504098 4794450
4725 504165 4794331
4726 497744 4787272
4727 497565 4787021
4728 497685 4787126
4729 497661 4786826
4730 497751 4786940
4731 497695 4786854
4732 497743 4786933
4733 497679 4786986
4734 497656 4786878
4735 497782 4786908
4736 497590 4786990
4737 497651 4787064
4738 497583 4787244
4739 497645 4787046
4740 497611 4786932
4741 497758 4787149
4742 497649 4787082
4743 497622 4787172
4744 497645 4787053
4745 497568 4787043
4746 497538 4786967
4747 497784 4787009
4748 497782 4786998
4749 497730 4787006
4750 497722 4786977
4751 497730 4786993
4752 497596 4787060
4753 497755 4787118
4754 497739 4787002
4755 497522 4786921
4756 497610 4786815
4757 497608 4787028
4758 497646 4787015
4759 497752 4786805
4760 497733 4787010
4761 497657 4786916
4762 497603 4786856
4763 497763 4786883
4764 497697 4786867
4765 497607 4787188
4766 497693 4787010
4767 497770 4786846
4768 497610 4786877
4769 497666 4786700
4770 497737 4786699
4771 497217 4789261
4772 497181 4789054
4773 497284 4789144
4774 497242 4789154
4775 497371 4789274
4776 497192 4789153
4777 497417 4789267
4778 497477 4789159
4779 497353 4789300
4780 497282 4789423
4781 497262 4789321
4782 497359 4789327
4783 497447 4789053
4784 497316 4789176
4785 497396 4789077
4786 497230 4789297
4787 497390 4789330
4788 497172 4789151
4789 497231 4789437
4790 497293 4789297
4791 497349 4789256
4792 497362 4789197
4793 497289 4789215
4794 497211 4789289
4795 497383 4789126
4796 497189 4789352
4797 497214 4789203
4798 497035 4789368
4799 497326 4789183
4800 497306 4789583
4801 497316 4789440
4802 497186 4789301
4803 497246 4789371
4804 497339 4789178
4805 497315 4789140
4806 497348 4788962
4807 497425 4789308
4808 497269 4789197
4809 497384 4789138
4810 497337 4789283
4811 497331 4789167
4812 497365 4789135
4813 497451 4789261
4814 497199 4789234
4815 497300 4789284
4816 500896 4791768
4817 500951 4791588
4818 500944 4791874
4819 500839 4791924
4820 500983 4791756
4821 500666 4791898
4822 500953 4791840
4823 500953 4791599
4824 500936 4791679
4825 500907 4791786
4826 500726 4791643
4827 500863 4791840
4828 500869 4791696
4829 500717 4791688
4830 500814 4791690
4831 500861 4791821
4832 500944 4791649
4833 500975 4791692
4834 500838 4791641
4835 500773 4791774
4836 500822 4791855
4837 500902 4791693
4838 500909 4791681
4839 500919 4791841
4840 500814 4791830
4841 500952 4791848
4842 501060 4791873
4843 500963 4791797
4844 500967 4791614
4845 500842 4791658
4846 500896 4791933
4847 500919 4791812
4848 500871 4791756
4849 500786 4791680
4850 500845 4791911
4851 500963 4791812
4852 500864 4791741
4853 500962 4791887
4854 501004 4791860
4855 500698 4791844
4856 500955 4791767
4857 500732 4792067
4858 501116 4791803
4859 500774 4791833
4860 500987 4791816
4861 498024 4786348
4862 497894 4786068
4863 497976 4786223
4864 497956 4786156
4865 498189 4786347
4866 498082 4786168
4867 498000 4786263
4868 498015 4786361
4869 497849 4786425
4870 498121 4786164
4871 498087 4786226
4872 498089 4786089
4873 498043 4786196
4874 498003 4786178
4875 498033 4786199
4876 498307 4786155
4877 498004 4786301
4878 497875 4786422
4879 498055 4786324
4880 498057 4786229
4881 497890 4786437
4882 497889 4786005
4883 497921 4786381
4884 498031 4786146
4885 497861 4786261
4886 497948 4786288
4887 498094 4786304
4888 498078 4786214
4889 498050 4786462
4890 498048 4786263
4891 498086 4786255
4892 497947 4786226
4893 497885 4786246
4894 497970 4786187
4895 497819 4786446
4896 497975 4786280
4897 497918 4786112
4898 498028 4786231
4899 497934 4786366
4900 497943 4786548
4901 498062 4786210
4902 498049 4786396
4903 497883 4786574
4904 497978 4786413
4905 498100 4786279
4906 496190 4786899
4907 496237 4786927
4908 496012 4787244
4909 496033 4787139
4910 496186 4787029
4911 496030 4786989
4912 496202 4786966
4913 496139 4787028
4914 496165 4786833
4915 496039 4786933
4916 496031 4786910
4917 496143 4787055
4918 496139 4787036
4919 496023 4786820
4920 496078 4786781
4921 496000 4787308
4922 496064 4786937
4923 496053 4787097
4924 496123 4787158
4925 496036 4786927
4926 496347 4786932
4927 496042 4786970
4928 496130 4786927
4929 496130 4787059
4930 496001 4787095
4931 496193 4786873
4932 496103 4786963
4933 496091 4787017
4934 496017 4786971
4935 496052 4787079
4936 496120 4786987
4937 496140 4787164
4938 496016 4786937
4939 496067 4787092
4940 496224 4787025
4941 496185 4787075
4942 496162 4787030
4943 496000 4787052
4944 496296 4786887
4945 496000 4786896
4946 496040 4787001
4947 496095 4787013
4948 496202 4786913
4949 496033 4786810
4950 496073 4787005
4951 502316 4795786
4952 502495 4795635
4953 502371 4795883
4954 502408 4795865
4955 502374 4795690
4956 502418 4795846
4957 502352 4795602
4958 502345 4795708
4959 502300 4795750
4960 502155 4795596
4961 502340 4795755
4962 502338 4795843
4963 502319 4795794
4964 502351 4795751
4965 502429 4795755
4966 502503 4795658
4967 502414 4796013
4968 502441 4795683
4969 502364 4795897
4970 502553 4795828
4971 502581 4795825
4972 502398 4795759
4973 502419 4795724
4974 502283 4795901
4975 502426 4795458
4976 502205 4795873
4977 502251 4795842
4978 502272 4795925
4979 502463 4795929
4980 502472 4795716
4981 502360 4795837
4982 502423 4795576
4983 502416 4795893
4984 502332 4795868
4985 502396 4795622
4986 502278 4795715
4987 502423 4795666
4988 502423 4795730
4989 502392 4795848
4990 502414 4795882
4991 502337 4795790
4992 502267 4795917
4993 502381 4795637
4994 502416 4795721
4995 502326 4796074
4996 500712 4788520
4997 500909 4788883
4998 500854 4788776
4999 500906 4789110
5000 500865 4788640
5001 500918 4788969
5002 500841 4788470
5003 500866 4788887
5004 500957 4788701
5005 500939 4788602
5006 500683 4788570
5007 500771 4788872
5008 500785 4788799
5009 500780 4788818
5010 500889 4788647
5011 500835 4788855
5012 500791 4788741
5013 500763 4788826
5014 500882 4788786
5015 500829 4788741
5016 500914 4788723
5017 500798 4788663
5018 500783 4788689
5019 500713 4788824
5020 500788 4788831
5021 500857 4788809
5022 500831 4788770
5023 500735 4788942
5024 500732 4788774
5025 500928 4788858
5026 500733 4788800
5027 500869 4788718
5028 500866 4788842
5029 500851 4788820
5030 500740 4788636
5031 500915 4788677
5032 500809 4788814
5033 500887 4788677
5034 500767 4788660
5035 501127 4788769
5036 500770 4788799
5037 500893 4788679
5038 500969 4788863
5039 500968 4788772
5040 500931 4788890
5041 502190 4789196
5042 502393 4789075
5043 502270 4789218
5044 502301 4789147
5045 502329 4789143
5046 502289 4788984
5047 502184 4789094
5048 502371 4789220
5049 502469 4789031
5050 502273 4789226
5051 502277 4789140
5052 502145 4789115
5053 502266 4789168
5054 502257 4789044
5055 502366 4789191
5056 502350 4788974
5057 502314 4789397
5058 502177 4789300
5059 502276 4789022
5060 502176 4789089
5061 502298 4789099
5062 502443 4789030
5063 502365 4789228
5064 502135 4789153
5065 502352 4789209
5066 502379 4789279
5067 502395 4789252
5068 502200 4789087
5069 502139 4789096
5070 502338 4789322
5071 502375 4789321
5072 502335 4789110
5073 502292 4789090
5074 502427 4789021
5075 502333 4789054
5076 502336 4789064
5077 502315 4789212
5078 502369 4789349
5079 502180 4789075
5080 502332 4789199
5081 502316 4789269
5082 502321 4789009
5083 502353 4788990
5084 502412 4789000
5085 502172 4789315
5086 496794 4794430
5087 496678 4794224
5088 496662 4794347
5089 496792 4794275
5090 496612 4794410
5091 496797 4794243
5092 496572 4794564
5093 496827 4794192
5094 496685 4794133
5095 496708 4794323
5096 496568 4794367
5097 496639 4794377
5098 496712 4794389
5099 496639 4794403
5100 496681 4794453
5101 496809 4794401
5102 496645 4794233
5103 496627 4794347
5104 496741 4794145
5105 496792 4794549
5106 496726 4794343
5107 496647 4794421
5108 496681 4794226
5109 496758 4794386
5110 496814 4794546
5111 496679 4794358
5112 496776 4794383
5113 496742 4794548
5114 496622 4794313
5115 496672 4794497
5116 496835 4794272
5117 496549 4794230
5118 496767 4794322
5119 496642 4794331
5120 496815 4794526
5121 496818 4794414
5122 496516 4794403
5123 496719 4794383
5124 496727 4794353
5125 496712 4794361
5126 496703 4794394
5127 496808 4794521
5128 496701 4794353
5129 496678 4794305
5130 496803 4794562
5131 498272 4788980
5132 498342 4788711
5133 498303 4788942
5134 498307 4788816
5135 498232 4788951
5136 498383 4788761
5137 498223 4789059
5138 498298 4788961
5139 498314 4789046
5140 498380 4788849
5141 498252 4788935
5142 498280 4789031
5143 498356 4789075
5144 498347 4788914
5145 498270 4789180
5146 498280 4788964
5147 498218 4788983
5148 498387 4789142
5149 498192 4789009
5150 498265 4789000
5151 498384 4788998
5152 498390 4788739
5153 498250 4788907
5154 498207 4789107
5155 498265 4789064
5156 498329 4789054
5157 498362 4789145
5158 498289 4789062
5159 498400 4788901
5160 498283 4788887
5161 498323 4788891
5162 498429 4789114
5163 498309 4789170
5164 498210 4789052
5165 498388 4789154
5166 498272 4789035
5167 498311 4789294
5168 498247 4789147
5169 498265 4788953
5170 498336 4788882
5171 498310 4789053
5172 498347 4788917
5173 498353 4788871
5174 498284 4788916
5175 498489 4788873
5176 501365 4791762
5177 501337 4791571
5178 501340 4791808
5179 501411 4791764
5180 501374 4791751
5181 501512 4791746
5182 501475 4791716
5183 501331 4791722
5184 501451 4791551
5185 501485 4791955
5186 501402 4791809
5187 501307 4791706
5188 501402 4791483
5189 501401 4791612
5190 501404 4791608
5191 501491 4791641
5192 501497 4791550
5193 501318 4791860
5194 501384 4791754
5195 501452 4791577
5196 501451 4791822
5197 501428 4791779
5198 501279 4791740
5199 501407 4791845
5200 501367 4791686
5201 501394 4791747
5202 501443 4791698
5203 501415 4791733
5204 501388 4791525
5205 501518 4791830
5206 501364 4791692
5207 501378 4791637
5208 501394 4791782
5209 501384 4791619
5210 501505 4791732
5211 501306 4791893
5212 501459 4791565
5213 501434 4791418
5214 501457 4791711
5215 501473 4791622
5216 501322 4791612
5217 501348 4791616
5218 501326 4791627
5219 501546 4791540
5220 501384 4791703
5221 500191 4787776
5222 500073 4787727
5223 500059 4787845
5224 500279 4788228
5225 500169 4787983
5226 500096 4787894
5227 499995 4787693
5228 500092 4787829
5229 500236 4787877
5230 500165 4788015
5231 500071 4788071
5232 500281 4787927
5233 500022 4788017
5234 500108 4787857
5235 500114 4787979
5236 500169 4787783
5237 500036 4787745
5238 500103 4787820
5239 500120 4787858
5240 500209 4787895
5241 500293 4787967
5242 500187 4787912
5243 500156 4788077
5244 500207 4787830
5245 500166 4787921
5246 500279 4787969
5247 500104 4788090
5248 500134 4787762
5249 500140 4787925
5250 500187 4787967
5251 500288 4787976
5252 500202 4787938
5253 500235 4787855
5254 500106 4787916
5255 500170 4787850
5256 500054 4787817
5257 500173 4787727
5258 500022 4788118
5259 500354 4788079
5260 500216 4787940
5261 500097 4788039
5262 499987 4787766
5263 500178 4787852
5264 500126 4787859
5265 500263 4787839
5266 504177 4790096
5267 504288 4790299
5268 504356 4790244
5269 504260 4790425
5270 504300 4790387
5271 504184 4790498
5272 504134 4790564
5273 504101 4790359
5274 504114 4790296
5275 504093 4790342
5276 504124 4790497
5277 504066 4790458
5278 504250 4790412
5279 504191 4790551
5280 504198 4790586
5281 504218 4790515
5282 504122 4790379
5283 504150 4790499
5284 504293 4790521
5285 504186 4790449
5286 504261 4790527
5287 504099 4790393
5288 504194 4790523
5289 504276 4790258
5290 504237 4790677
5291 504186 4790499
5292 504210 4790421
5293 504276 4790348
5294 503963 4790421
5295 504137 4790391
5296 504047 4790651
5297 504082 4790425
5298 504216 4790419
5299 504260 4790500
5300 504198 4790397
5301 504300 4790508
5302 504204 4790379
5303 504072 4790273
5304 504188 4790400
5305 504228 4790312
5306 504261 4790490
5307 504195 4790384
5308 504049 4790320
5309 504114 4790622
5310 504152 4790304
5311 502557 4796260
5312 502549 4796103
5313 502410 4796214
5314 502512 4796019
5315 502626 4796212
5316 502547 4796084
5317 502597 4796367
5318 502590 4796323
5319 502676 4796066
5320 502699 4796052
5321 502622 4796090
5322 502723 4796353
5323 502642 4796083
5324 502706 4796114
5325 502727 4796189
5326 502609 4796193
5327 502560 4796102
5328 502590 4796215
5329 502591 4796259
5330 502574 4796124
5331 502554 4796346
5332 502635 4796354
5333 502525 4796051
5334 502553 4795979
5335 502615 4796049
5336 502579 4796221
5337 502516 4796235
5338 502452 4796387
5339 502589 4796078
5340 502641 4796292
5341 502553 4796224
5342 502694 4796432
5343 502545 4796064
5344 502479 4796293
5345 502724 4796009
5346 502556 4796143
5347 502638 4796081
5348 502639 4796056
5349 502424 4796245
5350 502529 4796186
5351 502515 4796272
5352 502650 4795971
5353 502583 4796148
5354 502590 4796005
5355 502543 4795988
5356 503892 4788034
5357 503767 4787843
5358 503882 4787983
5359 504070 4788083
5360 503953 4787861
5361 503868 4788018
5362 503955 4787983
5363 503853 4787885
5364 503929 4788052
5365 503683 4788080
5366 503806 4787973
5367 504009 4787978
5368 503986 4788034
5369 503970 4787895
5370 504002 4788137
5371 503801 4788038
5372 503955 4787872
5373 503992 4788004
5374 503909 4788089
5375 503908 4787926
5376 503920 4787874
5377 503815 4787819
5378 503776 4788096
5379 503726 4787961
5380 503923 4787900
5381 504056 4787855
5382 503739 4788008
5383 503798 4787910
5384 503967 4787771
5385 503871 4787885
5386 503919 4787985
5387 504037 4788076
5388 503891 4787737
5389 503650 4788036
5390 503899 4788058
5391 503921 4787832
5392 503944 4788064
5393 503986 4788087
5394 503861 4787888
5395 503866 4787965
5396 503934 4787904
5397 503967 4788134
5398 503830 4787959
5399 504062 4788137
5400 503954 4788139
5401 504053 4796607
5402 504008 4796354
5403 504007 4796597
5404 503806 4796286
5405 504095 4796314
5406 503826 4796359
5407 504054 4796334
5408 503939 4796192
5409 504132 4796384
5410 503998 4796431
5411 504062 4796169
5412 503998 4796546
5413 504073 4796350
5414 504100 4796364
5415 504037 4796263
5416 503922 4796569
5417 503918 4796276
5418 504045 4796439
5419 503923 4796439
5420 503905 4796470
5421 503975 4796479
5422 503999 4796458
5423 504234 4796307
5424 503944 4796492
5425 503981 4796457
5426 503783 4796519
5427 504180 4796575
5428 504115 4796393
5429 504064 4796190
5430 504057 4796538
5431 503837 4796124
5432 503930 4796332
5433 503908 4796469
5434 504199 4796368
5435 504039 4796333
5436 503941 4796283
5437 503948 4796314
5438 504019 4796363
5439 504016 4796197
5440 504056 4796467
5441 503985 4796293
5442 504009 4796682
5443 503991 4796381
5444 503771 4796444
5445 504010 4796285
5446 499978 4792922
5447 499971 4793052
5448 499875 4792977
5449 500068 4793224
5450 499869 4792927
5451 499912 4793081
5452 499929 4793048
5453 499942 4792686
5454 500052 4792970
5455 500159 4793221
5456 499828 4793106
5457 499911 4793061
5458 499857 4792993
5459 499994 4793141
5460 499848 4792912
5461 499822 4792988
5462 500062 4792938
5463 499984 4793016
5464 499968 4792790
5465 499860 4792829
5466 499885 4793084
5467 499972 4793056
5468 499770 4792848
5469 500086 4793064
5470 499981 4792864
5471 500030 4793278
5472 499883 4793051
5473 499961 4792971
5474 499878 4792941
5475 499961 4793006
5476 500060 4793093
5477 499924 4793153
5478 499843 4793027
5479 499800 4792878
5480 500009 4793083
5481 499815 4793150
5482 499852 4793119
5483 499956 4792982
5484 500026 4793011
5485 499945 4792973
5486 499923 4792914
5487 499908 4793125
5488 500011 4792742
5489 499922 4793007
5490 499877 4792969
5491 504450 4792255
5492 504385 4792034
5493 504500 4791942
5494 504274 4792230
5495 504305 4792157
5496 504480 4792150
5497 504333 4792384
5498 504359 4792290
5499 504289 4792102
5500 504202 4792271
5501 504288 4792023
5502 504417 4792153
5503 504359 4792056
5504 504444 4792645
5505 504248 4792328
5506 504247 4791990
5507 504500 4792180
5508 504399 4792032
5509 504400 4792209
5510 504288 4792063
5511 504266 4792051
5512 504374 4792236
5513 504141 4791946
5514 504338 4792055
5515 504166 4792016
5516 504270 4792250
5517 504429 4792213
5518 504342 4792028
5519 504307 4792206
5520 504335 4792223
5521 504458 4791954
5522 504335 4792305
5523 504194 4792184
5524 504351 4792149
5525 504251 4792185
5526 504193 4792312
5527 504179 4792248
5528 504496 4792173
5529 504336 4792083
5530 504053 4792179
5531 504385 4792100
5532 504267 4792187
5533 504385 4792388
5534 504442 4792117
5535 504325 4792118
5536 502791 4790174
5537 502667 4790312
5538 502712 4790282
5539 502782 4790146
5540 502945 4790213
5541 502764 4790308
5542 502774 4790369
5543 502949 4790446
5544 502790 4790252
5545 502700 4790142
5546 502913 4790335
5547 502840 4790217
5548 502687 4790394
5549 502979 4790353
5550 502646 4790254
5551 502706 4790299
5552 502845 4790332
5553 502743 4790249
5554 502735 4790336
5555 502865 4790241
5556 502963 4790237
5557 502716 4790357
5558 502917 4790432
5559 502752 4790227
5560 502839 4790495
5561 502912 4790324
5562 502750 4790243
5563 502742 4790381
5564 502700 4790358
5565 502774 4790361
5566 502778 4790364
5567 502841 4790260
5568 502870 4790422
5569 502948 4790125
5570 502705 4790369
5571 502876 4790347
5572 502871 4790373
5573 502834 4790329
5574 502869 4790118
5575 502738 4790464
5576 502759 4790589
5577 502799 4790338
5578 502686 4790177
5579 502900 4790440
5580 502738 4790395
5581 501360 4788345
5582 501344 4788371
5583 501323 4788350
5584 501462 4788303
5585 501310 4788257
5586 501243 4788140
5587 501347 4788333
5588 501213 4788384
5589 501276 4788208
5590 501119 4788191
5591 501245 4788292
5592 501214 4788265
5593 501343 4788557
5594 501419 4788363
5595 501328 4788242
5596 501330 4788328
5597 501404 4788241
5598 501442 4788212
5599 501447 4788241
5600 501327 4788357
5601 501345 4788313
5602 501334 4788194
5603 501246 4788255
5604 501300 4788378
5605 501312 4788483
5606 501515 4788181
5607 501383 4788233
5608 501310 4788237
5609 501516 4788343
5610 501318 4788451
5611 501224 4788210
5612 501225 4788290
5613 501301 4788273
5614 501391 4788419
5615 501330 4788167
5616 501398 4788284
5617 501452 4788159
5618 501300 4788204
5619 501290 4788408
5620 501354 4788434
5621 501364 4788424
5622 501283 4788130
5623 501349 4788250
5624 501311 4788165
5625 501210 4788309
5626 497494 4794080
5627 497730 4794050
5628 497766 4793946
5629 497684 4794091
5630 497821 4794055
5631 497713 4793902
5632 497725 4794068
5633 497645 4793961
5634 497793 4793953
5635 497696 4794025
5636 497560 4794133
5637 497710 4794322
5638 497624 4794155
5639 497724 4793964
5640 497708 4793952
5641 497575 4794083
5642 497549 4793856
5643 497632 4793798
5644 497659 4793845
5645 497716 4794094
5646 497787 4793977
5647 497779 4794082
5648 497721 4794170
5649 497716 4794067
5650 497580 4794047
5651 497556 4793916
5652 497696 4793759
5653 497677 4794096
5654 497664 4794005
5655 497745 4794116
5656 497726 4793825
5657 497799 4793959
5658 497722 4793951
5659 497546 4793976
5660 497763 4794071
5661 497543 4794022
5662 497703 4793978
5663 497593 4793931
5664 497862 4793998
5665 497622 4794110
5666 497806 4794127
5667 497649 4793764
5668 497792 4794047
5669 497614 4794078
5670 497700 4794165
5671 502257 4787258
5672 502334 4787403
5673 502238 4787197
5674 502391 4787048
5675 502094 4787373
5676 502109 4786994
5677 502350 4787056
5678 502248 4787276
5679 502255 4787103
5680 502262 4787327
5681 502268 4787138
5682 502221 4787275
5683 502106 4787102
5684 502117 4787303
5685 502301 4787401
5686 502085 4787362
5687 502266 4787250
5688 502423 4787175
5689 502310 4787216
5690 502365 4787393
5691 502266 4787261
5692 502269 4787288
5693 502300 4787262
5694 502274 4787364
5695 502252 4787307
5696 502140 4787217
5697 502157 4787363
5698 502381 4787271
5699 502280 4787222
5700 502419 4787293
5701 502157 4787167
5702 502349 4787277
5703 502213 4787134
5704 502398 4787247
5705 502225 4787400
5706 502262 4787345
5707 502227 4787500
5708 502230 4787182
5709 502254 4787299
5710 502154 4787235
5711 502292 4787446
5712 502278 4787318
5713 502306 4787303
5714 502225 4787420
5715 502169 4787230
5716 496290 4794427
5717 496325 4794395
5718 496363 4794221
5719 496191 4794449
5720 496366 4794323
5721 496305 4794313
5722 496414 4794432
5723 496266 4794305
5724 496354 4794350
5725 496318 4794386
5726 496375 4794413
5727 496301 4794642
5728 496413 4794504
5729 496295 4794378
5730 496344 4794388
5731 496365 4794402
5732 496371 4794328
5733 496413 4794375
5734 496160 4794567
5735 496406 4794137
5736 496285 4794403
5737 496313 4794516
5738 496334 4794182
5739 496415 4794156
5740 496472 4794633
5741 496479 4794399
5742 496394 4794292
5743 496397 4794313
5744 496415 4794601
5745 496400 4794590
5746 496380 4794431
5747 496356 4794435
5748 496377 4794296
5749 496291 4794386
5750 496282 4794295
5751 496269 4794561
5752 496491 4794414
5753 496408 4794500
5754 496400 4794463
5755 496487 4794393
5756 496417 4794466
5757 496300 4794387
5758 496372 4794360
5759 496346 4794492
5760 496301 4794455
5761 496874 4789228
5762 496874 4789257
5763 496860 4789068
5764 496867 4789217
5765 496842 4789228
5766 496820 4789307
5767 496972 4789079
5768 496694 4789371
5769 496645 4789233
5770 496820 4789477
5771 496773 4789266
5772 496604 4789065
5773 496810 4789100
5774 496699 4789528
5775 496778 4789169
5776 496780 4789222
5777 496765 4789323
5778 496803 4789311
5779 496699 4789462
5780 496752 4789402
5781 496623 4789328
5782 496780 4789337
5783 496846 4789297
5784 496868 4789305
5785 496862 4789143
5786 496778 4789256
5787 496899 4789346
5788 496965 4789168
5789 496842 4789520
5790 496807 4789228
5791 496891 4789280
5792 496882 4789383
5793 496599 4789441
5794 496828 4788948
5795 496867 4789362
5796 496853 4789316
5797 496769 4789326
5798 496868 4789175
5799 496628 4789215
5800 496719 4789557
5801 496917 4789446
5802 496844 4789224
5803 496762 4789313
5804 496908 4789470
5805 496737 4789395
5806 500456 4788345
5807 500509 4788081
5808 500558 4788425
5809 500596 4788155
5810 500668 4788498
5811 500531 4788262
5812 500446 4788376
5813 500426 4788049
5814 500576 4788393
5815 500606 4788336
5816 500475 4788130
5817 500641 4788308
5818 500496 4788232
5819 500499 4788298
5820 500517 4788160
5821 500589 4788269
5822 500497 4788361
5823 500297 4787971
5824 500419 4788326
5825 500635 4788212
5826 500632 4788282
5827 500538 4788222
5828 500431 4788226
5829 500531 4788054
5830 500777 4788038
5831 500434 4788224
5832 500648 4788337
5833 500485 4788235
5834 500388 4788230
5835 500493 4788008
5836 500515 4788142
5837 500437 4788428
5838 500384 4788219
5839 500631 4788225
5840 500497 4788349
5841 500501 4788283
5842 500641 4788388
5843 500569 4788223
5844 500323 4788331
5845 500719 4788274
5846 500623 4788187
5847 500516 4788057
5848 500317 4788158
5849 500511 4788238
5850 500447 4788287
5851 502895 4788303
5852 503037 4788284
5853 503069 4788286
5854 502933 4788323
5855 502792 4788195
5856 502872 4788230
5857 502969 4788410
5858 503071 4788520
5859 503268 4788380
5860 502935 4788325
5861 502986 4788324
5862 502975 4788426
5863 503053 4788244
5864 502958 4788221
5865 503011 4788104
5866 503025 4788324
5867 502964 4788174
5868 502812 4788304
5869 502947 4788468
5870 503055 4788194
5871 503061 4788255
5872 502940 4788414
5873 503086 4788319
5874 502883 4788176
5875 503020 4788242
5876 502907 4788048
5877 503070 4788105
5878 503123 4788381
5879 502916 4788256
5880 503082 4788381
5881 503123 4788300
5882 502931 4788241
5883 503092 4788487
5884 502999 4788164
5885 502936 4788361
5886 502942 4788047
5887 503134 4788265
5888 502985 4788426
5889 502981 4788268
5890 503023 4788618
5891 503055 4788272
5892 502996 4788302
5893 503125 4788349
5894 502906 4788382
5895 503033 4788351
5896 501015 4796412
5897 500972 4796423
5898 500983 4796463
5899 500901 4796449
5900 500878 4796239
5901 501118 4796543
5902 501097 4796417
5903 500904 4796502
5904 501142 4796482
5905 500993 4796521
5906 500886 4796376
5907 501001 4796573
5908 501032 4796199
5909 500953 4796270
5910 500912 4796489
5911 501113 4796490
5912 501099 4796464
5913 500976 4796389
5914 500957 4796484
5915 501100 4796217
5916 501033 4796382
5917 500839 4796279
5918 501058 4796210
5919 501027 4796499
5920 500877 4796555
5921 501004 4796310
5922 500954 4796437
5923 501004 4796487
5924 500897 4796406
5925 501047 4796387
5926 501015 4796296
5927 501023 4796518
5928 500973 4796585
5929 501056 4796391
5930 500897 4796275
5931 501000 4796321
5932 501135 4796378
5933 501000 4796294
5934 500902 4796363
5935 501032 4796414
5936 501124 4796628
5937 500945 4796471
5938 501117 4796444
5939 501060 4796398
5940 500864 4796489
5941 497247 4787147
5942 497096 4787330
5943 497243 4787441
5944 497055 4787354
5945 497110 4787408
5946 497211 4787406
5947 497152 4787522
5948 497231 4787540
5949 497176 4787137
5950 497129 4787387
5951 497173 4787321
5952 497295 4787447
5953 497288 4787340
5954 497325 4787499
5955 497199 4787472
5956 497224 4787450
5957 497269 4787475
5958 497125 4787277
5959 497163 4787330
5960 497350 4787237
5961 496998 4787562
5962 497094 4787315
5963 497104 4787273
5964 497218 4787451
5965 497077 4787374
5966 497280 4787335
5967 497211 4787319
5968 497235 4787480
5969 497203 4787296
5970 497096 4787522
5971 497101 4787450
5972 496978 4787423
5973 497134 4787594
5974 497197 4787590
5975 497239 4787372
5976 497208 4787187
5977 497212 4787265
5978 497144 4787340
5979 497265 4787496
5980 497199 4787411
5981 497059 4787483
5982 497175 4787583
5983 497213 4787295
5984 497127 4787556
5985 497257 4787367
5986 497774 4794297
5987 497673 4794413
5988 497577 4794419
5989 497611 4794456
5990 497586 4794228
5991 497678 4794451
5992 497643 4794405
5993 497677 4794514
5994 497514 4794283
5995 497686 4794434
5996 497871 4794110
5997 497734 4794440
5998 497625 4794453
5999 497582 4794469
6000 497579 4794211
6001 497699 4794119
6002 497691 4794374
6003 497559 4794340
6004 497600 4794331
6005 497726 4794278
6006 497645 4794221
6007 497591 4794168
6008 497635 4794364
6009 497602 4794231
6010 497760 4794132
6011 497639 4794558
6012 497637 4794386
6013 497768 4794356
6014 497593 4794382
6015 497792 4794225
6016 497536 4794443
6017 497665 4794108
6018 497704 4794438
6019 497545 4794576
6020 497567 4794379
6021 497618 4794497
6022 497736 4794232
6023 497588 4794286
6024 497481 4794572
6025 497643 4794166
6026 497893 4794259
6027 497540 4794258
6028 497655 4794351
6029 497700 4794234
6030 497563 4794263
6031 499060 4797829
6032 499066 4797794
6033 499058 4797794
6034 498957 4797801
6035 499066 4797829
6036 499085 4797687
6037 499145 4798000
6038 499150 4798000
6039 499058 4797730
6040 498973 4797931
6041 499156 4797632
6042 499193 4797944
6043 499111 4797670
6044 499202 4797850
6045 499278 4797720
6046 499068 4797846
6047 498940 4798000
6048 498949 4797791
6049 499195 4797785
6050 498944 4797728
6051 499042 4797995
6052 499041 4797883
6053 498997 4797895
6054 499111 4797995
6055 499110 4797983
6056 499167 4797769
6057 499177 4797794
6058 498981 4797912
6059 499089 4797818
6060 499154 4797978
6061 499084 4797839
6062 499060 4797907
6063 499013 4797925
6064 498970 4797755
6065 498958 4797844
6066 499158 4797599
6067 499189 4797831
6068 499024 4797909
6069 499125 4797782
6070 499151 4797802
6071 498970 4798000
6072 499031 4797893
6073 499153 4797903
6074 499028 4797937
6075 499129 4797649
6076 501736 4787083
6077 501670 4787037
6078 501900 4786881
6079 501788 4787032
6080 501889 4786878
6081 501827 4786810
6082 501768 4787009
6083 501802 4786784
6084 501969 4787106
6085 501807 4786979
6086 501726 4786885
6087 501715 4786728
6088 501818 4786898
6089 501816 4786977
6090 501761 4786917
6091 501849 4786915
6092 501701 4786661
6093 501812 4786944
6094 501848 4786966
6095 501842 4786885
6096 501734 4786826
6097 502009 4786844
6098 501826 4786806
6099 501806 4786783
6100 501856 4786881
6101 501728 4786816
6102 501774 4786864
6103 501816 4787038
6104 501846 4786940
6105 501717 4786957
6106 501891 4787149
6107 501835 4786843
6108 501830 4786816
6109 501745 4787023
6110 501798 4786899
6111 501892 4786935
6112 501807 4786676
6113 501766 4787018
6114 501694 4786915
6115 501813 4787132
6116 501888 4787129
6117 501784 4787015
6118 501845 4787191
6119 501910 4787006
6120 501641 4787110
6121 497829 4795304
6122 497634 4795481
6123 497750 4795166
6124 497725 4795269
6125 497624 4795182
6126 497793 4795332
6127 497796 4795014
6128 497848 4795139
6129 497751 4795255
6130 497721 4795012
6131 497823 4795306
6132 497730 4795223
6133 497779 4795500
6134 497692 4795192
6135 497778 4795249
6136 497646 4795226
6137 497551 4795315
6138 497713 4795202
6139 497598 4795280
6140 497742 4795205
6141 497896 4795262
6142 497653 4795233
6143 497857 4795157
6144 497704 4795277
6145 497606 4795140
6146 497653 4795225
6147 497636 4795455
6148 497730 4795325
6149 497522 4795194
6150 497733 4795149
6151 497813 4795399
6152 497623 4795291
6153 497647 4795223
6154 497720 4795354
6155 497677 4795123
6156 497592 4795054
6157 497783 4795454
6158 497585 4795289
6159 497688 4795375
6160 497628 4795274
6161 497701 4795383
6162 497606 4795160
6163 497690 4795432
6164 497715 4795352
6165 497624 4795176
6166 501659 4786528
6167 501622 4786522
6168 501726 4786514
6169 501576 4786665
6170 501590 4786722
6171 501807 4786727
6172 501761 4786543
6173 501563 4786681
6174 501693 4786711
6175 501853 4786648
6176 501717 4786458
6177 501611 4786631
6178 501719 4786660
6179 501635 4786460
6180 501720 4786515
6181 501660 4786547
6182 501664 4786550
6183 501732 4786460
6184 501685 4786474
6185 501671 4786741
6186 501809 4786407
6187 501565 4786525
6188 501853 4786523
6189 501564 4786473
6190 501753 4786472
6191 501706 4786730
6192 501718 4786533
6193 501623 4786609
6194 501650 4786655
6195 501705 4786757
6196 501530 4786465
6197 501854 4786659
6198 501628 4786636
6199 501598 4786499
6200 501662 4786907
6201 501749 4786722
6202 501694 4786501
6203 501583 4786593
6204 501617 4786582
6205 501589 4786529
6206 501626 4786393
6207 501646 4786634
6208 501714 4786616
6209 501657 4786728
6210 501724 4786561
6211 499264 4796026
6212 499379 4796370
6213 499219 4796180
6214 499194 4796264
6215 499352 4796332
6216 499294 4796250
6217 499375 4796111
6218 499216 4796129
6219 499290 4796177
6220 499265 4796172
6221 499187 4796300
6222 499393 4796191
6223 499363 4796265
6224 499296 4796148
6225 499383 4796090
6226 499434 4796178
6227 499317 4796039
6228 499404 4796185
6229 499304 4796184
6230 499357 4796190
6231 499392 4796310
6232 499435 4796247
6233 499490 4795868
6234 499478 4796304
6235 499197 4796270
6236 499236 4796125
6237 499275 4796159
6238 499292 4796148
6239 499392 4796131
6240 499448 4795911
6241 499144 4796142
6242 499202 4796312
6243 499193 4796157
6244 499462 4796191
6245 499335 4795947
6246 499299 4795931
6247 499305 4796276
6248 499405 4796240
6249 499231 4796325
6250 499233 4796266
6251 499335 4796167
6252 499336 4796135
6253 499257 4796181
6254 499273 4796200
6255 499416 4796192
6256 500473 4797208
6257 500348 4797359
6258 500398 4797362
6259 500572 4797194
6260 500146 4797295
6261 500400 4797449
6262 500459 4797320
6263 500432 4797488
6264 500367 4797614
6265 500309 4797186
6266 500372 4797350
6267 500289 4797395
6268 500521 4797414
6269 500559 4797432
6270 500420 4797216
6271 500313 4797317
6272 500475 4797300
6273 500383 4797085
6274 500271 4797415
6275 500286 4797327
6276 500373 4797268
6277 500310 4797263
6278 500348 4797119
6279 500345 4797424
6280 500537 4797251
6281 500423 4797327
6282 500483 4797451
6283 500289 4797218
6284 500408 4797444
6285 500341 4797419
6286 500464 4797584
6287 500556 4797320
6288 500506 4797270
6289 500523 4797302
6290 500264 4797315
6291 500367 4797297
6292 500291 4797480
6293 500327 4797195
6294 500352 4797402
6295 500414 4797278
6296 500323 4797364
6297 500352 4797327
6298 500475 4797335
6299 500460 4796946
6300 500409 4797377
6301 497515 4787572
6302 497510 4787565
6303 497554 4787735
6304 497536 4787795
6305 497468 4787599
6306 497497 4787748
6307 497563 4787699
6308 497357 4787789
6309 497437 4787649
6310 497509 4787755
6311 497430 4787499
6312 497574 4787801
6313 497629 4787885
6314 497473 4787593
6315 497531 4787444
6316 497520 4787762
6317 497488 4787846
6318 497541 4787804
6319 497481 4787566
6320 497511 4787660
6321 497433 4787661
6322 497468 4787695
6323 497439 4787490
6324 497438 4787855
6325 497589 4787830
6326 497531 4787770
6327 497381 4787524
6328 497510 4787655
6329 497493 4787506
6330 497461 4787676
6331 497592 4787546
6332 497499 4787562
6333 497493 4787426
6334 497582 4787628
6335 497522 4787357
6336 497539 4787735
6337 497458 4787631
6338 497472 4787714
6339 497599 4787724
6340 497342 4787757
6341 497490 4787799
6342 497502 4787904
6343 497494 4787666
6344 497651 4787720
6345 497615 4787669
6346 502723 4791580
6347 502579 4791450
6348 502626 4791379
6349 502726 4791418
6350 502771 4791319
6351 502637 4791339
6352 502718 4791562
6353 502747 4791451
6354 502877 4791374
6355 502798 4791560
6356 502762 4791539
6357 502595 4791549
6358 502753 4791482
6359 502665 4791492
6360 502735 4791617
6361 502642 4791374
6362 502665 4791366
6363 502797 4791402
6364 502718 4791666
6365 502678 4791481
6366 502589 4791373
6367 502673 4791649
6368 502668 4791430
6369 502648 4791238
6370 502764 4791441
6371 502750 4791347
6372 502685 4791518
6373 502776 4791511
6374 502716 4791487
6375 502763 4791377
6376 502729 4791538
6377 502723 4791413
6378 502652 4791504
6379 502722 4791441
6380 502702 4791490
6381 502708 4791548
6382 502615 4791401
6383 502736 4791368
6384 502670 4791473
6385 502850 4791378
6386 502798 4791300
6387 502677 4791361
6388 502634 4791709
6389 502723 4791530
6390 502719 4791232
6391 503051 4794872
6392 503295 4794760
6393 503221 4794808
6394 503230 4794753
6395 503226 4794819
6396 503074 4794790
6397 502937 4794548
6398 503307 4794781
6399 503326 4794608
6400 503259 4794410
6401 503123 4794684
6402 503093 4794798
6403 503059 4794844
6404 503191 4794729
6405 503279 4794862
6406 503346 4794529
6407 503135 4794547
6408 503255 4794592
6409 503391 4794579
6410 503039 4794622
6411 503022 4794556
6412 503253 4794502
6413 503149 4794785
6414 503330 4794797
6415 503177 4794655
6416 503198 4794580
6417 503179 4794707
6418 503135 4794671
6419 503272 4794583
6420 503186 4794701
6421 503192 4794632
6422 503279 4794647
6423 503089 4794671
6424 502989 4794647
6425 503107 4794711
6426 503152 4794687
6427 503173 4794781
6428 503120 4794607
6429 503209 4794728
6430 503111 4794749
6431 503282 4794658
6432 503214 4794642
6433 503179 4794778
6434 503342 4794626
6435 503193 4794522
6436 498431 4795204
6437 498557 4795006
6438 498442 4794964
6439 498478 4795149
6440 498586 4795035
6441 498476 4795253
6442 498420 4795130
6443 498369 4795002
6444 498436 4795023
6445 498468 4795195
6446 498375 4795107
6447 498382 4795299
6448 498389 4794940
6449 498421 4795107
6450 498520 4794941
6451 498521 4795189
6452 498421 4795196
6453 498472 4794904
6454 498367 4795068
6455 498480 4795197
6456 498471 4795141
6457 498576 4795215
6458 498428 4794997
6459 498537 4795131
6460 498448 4794853
6461 498467 4795183
6462 498341 4795120
6463 498447 4795109
6464 498453 4795140
6465 498416 4794873
6466 498489 4795237
6467 498535 4794678
6468 498464 4794948
6469 498480 4795168
6470 498502 4795188
6471 498397 4795064
6472 498563 4795087
6473 498432 4794981
6474 498352 4794943
6475 498585 4795085
6476 498546 4795140
6477 498469 4795041
6478 498514 4795035
6479 498452 4795058
6480 498401 4794914
6481 502769 4790283
6482 502627 4790189
6483 502743 4790290
6484 502773 4790165
6485 502659 4790252
6486 502823 4790248
6487 502895 4790191
6488 502846 4790411
6489 502686 4790274
6490 502749 4789914
6491 502753 4790296
6492 502687 4790192
6493 502799 4790197
6494 502711 4790063
6495 502859 4789997
6496 502651 4790063
6497 502733 4790172
6498 502643 4790155
6499 502696 4790494
6500 502670 4790236
6501 502749 4790175
6502 502747 4790254
6503 502737 4790321
6504 502791 4790053
6505 502624 4790067
6506 502495 4790344
6507 502836 4790208
6508 502734 4789958
6509 502596 4790022
6510 502850 4790044
6511 502801 4790378
6512 502753 4789933
6513 502669 4790405
6514 502694 4790098
6515 502742 4790459
6516 502944 4790324
6517 502692 4790206
6518 502788 4789917
6519 502810 4790211
6520 502806 4790244
6521 502647 4790154
6522 502823 4790304
6523 502629 4790352
6524 502729 4790257
6525 502757 4790261
6526 499948 4788007
6527 499954 4787884
6528 500029 4788057
6529 500019 4787869
6530 499725 4788006
6531 500025 4787956
6532 499911 4787975
6533 499972 4787703
6534 500147 4787954
6535 499934 4788120
6536 500032 4788032
6537 499896 4788031
6538 500108 4788003
6539 500154 4787868
6540 500044 4787985
6541 499996 4787996
6542 499905 4787965
6543 500031 4788058
6544 499993 4788164
6545 499955 4787966
6546 499843 4787790
6547 499929 4787991
6548 499960 4787999
6549 500108 4787748
6550 499928 4787904
6551 499947 4787980
6552 500034 4787925
6553 499954 4788195
6554 499912 4788003
6555 500052 4788042
6556 499995 4787721
6557 500058 4787969
6558 500040 4787990
6559 499951 4787930
6560 499874 4787793
6561 499958 4788216
6562 500009 4787858
6563 500036 4787908
6564 500129 4787931
6565 500150 4787983
6566 499981 4788064
6567 499987 4788051
6568 499990 4787906
6569 500185 4788053
6570 500088 4787971
6571 501673 4794261
6572 501652 4794023
6573 501529 4794283
6574 501650 4794013
6575 501619 4794161
6576 501497 4794326
6577 501690 4794230
6578 501665 4794161
6579 501847 4794265
6580 501629 4794022
6581 501738 4794474
6582 501585 4794069
6583 501670 4794081
6584 501733 4794166
6585 501536 4794253
6586 501551 4794120
6587 501761 4794205
6588 501647 4794089
6589 501638 4794233
6590 501803 4794199
6591 501689 4794115
6592 501693 4794036
6593 501568 4794295
6594 501571 4794068
6595 501617 4794524
6596 501698 4794046
6597 501554 4794192
6598 501581 4794260
6599 501549 4794093
6600 501620 4794195
6601 501572 4794117
6602 501667 4794263
6603 501571 4794279
6604 501547 4794265
6605 501598 4794016
6606 501501 4794262
6607 501735 4794159
6608 501672 4794169
6609 501775 4794378
6610 501592 4794056
6611 501633 4794201
6612 501521 4794140
6613 501542 4794422
6614 501861 4794161
6615 501606 4794058
6616 503541 4796345
6617 503665 4796522
6618 503691 4796566
6619 503628 4796245
6620 503736 4796410
6621 503564 4796708
6622 503750 4796524
6623 503725 4796688
6624 503627 4796733
6625 503644 4796364
6626 503820 4796730
6627 503762 4796496
6628 503625 4796479
6629 503562 4796871
6630 503694 4796527
6631 503706 4796688
6632 503797 4796648
6633 503637 4796510
6634 503894 4796369
6635 503766 4796436
6636 503602 4796763
6637 503760 4796577
6638 503643 4796315
6639 503463 4796668
6640 503642 4796496
6641 503661 4796580
6642 503533 4796309
6643 503761 4796429
6644 503922 4796717
6645 503740 4796469
6646 503616 4796264
6647 503644 4796686
6648 503766 4796585
6649 503756 4796603
6650 503779 4796601
6651 503760 4796272
6652 503796 4796552
6653 503751 4796557
6654 503871 4796556
6655 503822 4796604
6656 503494 4796472
6657 503767 4796632
6658 503638 4796431
6659 503575 4796699
6660 503636 4796444
6661 501738 4790179
6662 501666 4790323
6663 501831 4790482
6664 501723 4790375
6665 501657 4790237
6666 501692 4790323
6667 501598 4790407
6668 501866 4790370
6669 501824 4790364
6670 501824 4790217
6671 501816 4790268
6672 501682 4790283
6673 501812 4790468
6674 501756 4790127
6675 501795 4790314
6676 501791 4790302
6677 501711 4790371
6678 501757 4790294
6679 501652 4790415
6680 501669 4790402
6681 501705 4790444
6682 501729 4790217
6683 501597 4790190
6684 501809 4790165
6685 501889 4790253
6686 501720 4790385
6687 501893 4790253
6688 501781 4790238
6689 501813 4790325
6690 501885 4790251
6691 501580 4790260
6692 501827 4790404
6693 501684 4790127
6694 501628 4790392
6695 501736 4790181
6696 501618 4790371
6697 501665 4790108
6698 501763 4790383
6699 501753 4790310
6700 501785 4790266
6701 501781 4790149
6702 501745 4790193
6703 501793 4790279
6704 501766 4790172
6705 501862 4790432
6706 504034 4796825
6707 504324 4796605
6708 504195 4796896
6709 504202 4796643
6710 503883 4796546
6711 504232 4796775
6712 504055 4796865
6713 504328 4796597
6714 504247 4796686
6715 504207 4796537
6716 504244 4796544
6717 504228 4796795
6718 504326 4796742
6719 504175 4796641
6720 504248 4796632
6721 504223 4796503
6722 504152 4796854
6723 504035 4796752
6724 504086 4796818
6725 504231 4796531
6726 504278 4796647
6727 504043 4796632
6728 504196 4796506
6729 504234 4796710
6730 504230 4796602
6731 504380 4796936
6732 504239 4796590
6733 504209 4796748
6734 504154 4796650
6735 504267 4796668
6736 504206 4796729
6737 504297 4796690
6738 504164 4796932
6739 504308 4796701
6740 504324 4796867
6741 504114 4796640
6742 504208 4796837
6743 504259 4796627
6744 504194 4796689
6745 504170 4796648
6746 504262 4796939
6747 504043 4796692
6748 504056 4796863
6749 504212 4796790
6750 504179 4796823
6751 499071 4787975
6752 498852 4787882
6753 498987 4788105
6754 498911 4787831
6755 498870 4787745
6756 498757 4787754
6757 498761 4787990
6758 498892 4787640
6759 498786 4787798
6760 498965 4788002
6761 498770 4787776
6762 498905 4787945
6763 498753 4787863
6764 498862 4787799
6765 498841 4787745
6766 498828 4787888
6767 498912 4788109
6768 498901 4787759
6769 498831 4788032
6770 498651 4787802
6771 498794 4787759
6772 498730 4787768
6773 498839 4787878
6774 498833 4787739
6775 498836 4787719
6776 498802 4787701
6777 498873 4787992
6778 498813 4787580
6779 498750 4787797
6780 498813 4787578
6781 498794 4787595
6782 498713 4787820
6783 498757 4787875
6784 498815 4787736
6785 498926 4787910
6786 498868 4787987
6787 498796 4787708
6788 498940 4787690
6789 498838 4787805
6790 498818 4787898
6791 498775 4787935
6792 498859 4787920
6793 499026 4787743
6794 498923 4787851
6795 498930 4787942
6796 501659 4797786
6797 501632 4797716
6798 501492 4797617
6799 501673 4797625
6800 501602 4797546
6801 501510 4797463
6802 501668 4797714
6803 501658 4797497
6804 501615 4797736
6805 501611 4797661
6806 501632 4797901
6807 501614 4797577
6808 501569 4797933
6809 501653 4797642
6810 501659 4797734
6811 501480 4797705
6812 501568 4797641
6813 501646 4797740
6814 501465 4797680
6815 501661 4797623
6816 501585 4797563
6817 501641 4797615
6818 501568 4797788
6819 501522 4797581
6820 501637 4797774
6821 501657 4797549
6822 501635 4797506
6823 501626 4797623
6824 501633 4797655
6825 501546 4797903
6826 501647 4797633
6827 501438 4797469
6828 501700 4797709
6829 501605 4797618
6830 501465 4797835
6831 501616 4797657
6832 501652 4797663
6833 501559 4797674
6834 501467 4797590
6835 501502 4797735
6836 501778 4797661
6837 501747 4797523
6838 501738 4797647
6839 501486 4797688
6840 501515 4797696
6841 497538 4792494
6842 497528 4792369
6843 497685 4792271
6844 497466 4792533
6845 497385 4792639
6846 497543 4792336
6847 497509 4792593
6848 497566 4792328
6849 497537 4792369
6850 497465 4792345
6851 497505 4792403
6852 497504 4792593
6853 497561 4792273
6854 497356 4792416
6855 497434 4792234
6856 497327 4792321
6857 497445 4792390
6858 497298 4792698
6859 497482 4792384
6860 497467 4792411
6861 497351 4792670
6862 497543 4792262
6863 497568 4792584
6864 497570 4792378
6865 497380 4792399
6866 497501 4792391
6867 497454 4792405
6868 497467 4792300
6869 497448 4792523
6870 497343 4792162
6871 497559 4792483
6872 497519 4792494
6873 497540 4792291
6874 497584 4792262
6875 497422 4792318
6876 497421 4792326
6877 497411 4792257
6878 497509 4792555
6879 497509 4792652
6880 497415 4792288
6881 497423 4792441
6882 497431 4792323
6883 497450 4792234
6884 497443 4792310
6885 497424 4792593
6886 503244 4795694
6887 503226 4795551
6888 503329 4795871
6889 503345 4795748
6890 503220 4795592
6891 503255 4795812
6892 503266 4795750
6893 503218 4795661
6894 503181 4795852
6895 503316 4795592
6896 503100 4795773
6897 503372 4795628
6898 503338 4795545
6899 503255 4795549
6900 503322 4795592
6901 503223 4795713
6902 503291 4795610
6903 503208 4795593
6904 503284 4795694
6905 503227 4795559
6906 503293 4795759
6907 503171 4795496
6908 503117 4795465
6909 503168 4795688
6910 503103 4795732
6911 503252 4795645
6912 503295 4795587
6913 503370 4795629
6914 503200 4795634
6915 503356 4795653
6916 503341 4795750
6917 503269 4795391
6918 503320 4795711
6919 503293 4795416
6920 503222 4795529
6921 503283 4795774
6922 503209 4795647
6923 503157 4795786
6924 503210 4795648
6925 503172 4795523
6926 503143 4795670
6927 503152 4795715
6928 503291 4795632
6929 503244 4795487
6930 503258 4795672
6931 500289 4790366
6932 500509 4790340
6933 500434 4790252
6934 500270 4790386
6935 500350 4790378
6936 500336 4790358
6937 500348 4790432
6938 500452 4790445
6939 500430 4790335
6940 500433 4790353
6941 500261 4790465
6942 500321 4790425
6943 500235 4790066
6944 500524 4790389
6945 500543 4790359
6946 500418 4790374
6947 500461 4790392
6948 500400 4790365
6949 500453 4790407
6950 500522 4790350
6951 500261 4790427
6952 500447 4790394
6953 500325 4790235
6954 500518 4790250
6955 500316 4790378
6956 500335 4790353
6957 500435 4790340
6958 500487 4790395
6959 500574 4790162
6960 500485 4790370
6961 500472 4790189
6962 500396 4790420
6963 500288 4790354
6964 500430 4790376
6965 500277 4790348
6966 500380 4790288
6967 500339 4790503
6968 500568 4790396
6969 500302 4790127
6970 500396 4790301
6971 500463 4790274
6972 500270 4790357
6973 500373 4790317
6974 500477 4790314
6975 500397 4790605
6976 500295 4789886
6977 500422 4789960
6978 500616 4789694
6979 500469 4789849
6980 500369 4789922
6981 500451 4789748
6982 500317 4790024
6983 500395 4789868
6984 500287 4789957
6985 500566 4789865
6986 500519 4789748
6987 500346 4789793
6988 500333 4789758
6989 500516 4789803
6990 500465 4790082
6991 500377 4790007
6992 500296 4789836
6993 500266 4789657
6994 500549 4789649
6995 500515 4789699
6996 500500 4789652
6997 500339 4789588
6998 500437 4789783
6999 500535 4789965
7000 500466 4789716
7001 500536 4789838
7002 500470 4789689
7003 500446 4789826
7004 500488 4789569
7005 500483 4789817
7006 500431 4789871
7007 500387 4789966
7008 500515 4789958
7009 500391 4789703
7010 500304 4789809
7011 500443 4789984
7012 500420 4789621
7013 500227 4789960
7014 500529 4789950
7015 500414 4789888
7016 500437 4789629
7017 500383 4789901
7018 500327 4789973
7019 500468 4789858
7020 500455 4789717
7021 502171 4789669
7022 502218 4789686
7023 502094 4789846
7024 502014 4789681
7025 502185 4789702
7026 502219 4789763
7027 502138 4789740
7028 502168 4790052
7029 502202 4789713
7030 502272 4789652
7031 502248 4789588
7032 502179 4789807
7033 502237 4789681
7034 502307 4789842
7035 502272 4789760
7036 502187 4789831
7037 502061 4789649
7038 502186 4789706
7039 502183 4789811
7040 502366 4789894
7041 502370 4789827
7042 502214 4789801
7043 502275 4789987
7044 502226 4789882
7045 502056 4789860
7046 502314 4789749
7047 502178 4789642
7048 502134 4789934
7049 502360 4789680
7050 502261 4789778
7051 502155 4789727
7052 502177 4790001
7053 502201 4789647
7054 502169 4789850
7055 502193 4789947
7056 502286 4789817
7057 502349 4789733
7058 502170 4789838
7059 502213 4790026
7060 502207 4789887
7061 502067 4789679
7062 502095 4789793
7063 502267 4789835
7064 502216 4789788
7065 502187 4789897
7066 498715 4787383
7067 498469 4787286
7068 498644 4787301
7069 498623 4787385
7070 498550 4787291
7071 498638 4787493
7072 498618 4787257
7073 498692 4787406
7074 498513 4787456
7075 498542 4787462
7076 498650 4787256
7077 498773 4787495
7078 498655 4787547
7079 498505 4787345
7080 498610 4787451
7081 498503 4787599
7082 498710 4787553
7083 498671 4787554
7084 498702 4787329
7085 498678 4787308
7086 498664 4787500
7087 498717 4787412
7088 498579 4787423
7089 498623 4787561
7090 498602 4787535
7091 498750 4787603
7092 498487 4787318
7093 498553 4787335
7094 498682 4787399
7095 498631 4787553
7096 498671 4787557
7097 498700 4787356
7098 498502 4787621
7099 498659 4787383
7100 498456 4787188
7101 498710 4787496
7102 498571 4787302
7103 498529 4787526
7104 498607 4787438
7105 498523 4787510
7106 498504 4787497
7107 498580 4787646
7108 498561 4787351
7109 498470 4787687
7110 498602 4787438
7111 501641 4792500
7112 501688 4792479
7113 501742 4792315
7114 501655 4792452
7115 501632 4792495
7116 501735 4792390
7117 501667 4792355
7118 501680 4792592
7119 501620 4792570
7120 501641 4792422
7121 501517 4792395
7122 501633 4792680
7123 501573 4792189
7124 501489 4792543
7125 501643 4792477
7126 501661 4792599
7127 501615 4792375
7128 501664 4792620
7129 501560 4792370
7130 501553 4792625
7131 501650 4792369
7132 501603 4792713
7133 501608 4792403
7134 501791 4792430
7135 501724 4792521
7136 501680 4792578
7137 501501 4792521
7138 501544 4792571
7139 501532 4792523
7140 501780 4792726
7141 501642 4792590
7142 501672 4792489
7143 501680 4792563
7144 501461 4792472
7145 501564 4792753
7146 501784 4792659
7147 501655 4792561
7148 501555 4792588
7149 501649 4792390
7150 501736 4792648
7151 501608 4792669
7152 501580 4792413
7153 501702 4792594
7154 501596 4792424
7155 501520 4792429
7156 500283 4792539
7157 500280 4792730
7158 499996 4792258
7159 500276 4792618
7160 500121 4792534
7161 500104 4792295
7162 500115 4792396
7163 500143 4792574
7164 500221 4792360
7165 500235 4792447
7166 500222 4792299
7167 500190 4792068
7168 500233 4792430
7169 500236 4792634
7170 500072 4792016
7171 500156 4792489
7172 500094 4792509
7173 500191 4792457
7174 500125 4792473
7175 500171 4792490
7176 500288 4792630
7177 500143 4792407
7178 500153 4792419
7179 500138 4792392
7180 500143 4792537
7181 500251 4792418
7182 500302 4792438
7183 500350 4792352
7184 500129 4792512
7185 500263 4792287
7186 500015 4792658
7187 500184 4792346
7188 500051 4792260
7189 500147 4792354
7190 500174 4792529
7191 500029 4792189
7192 500036 4792479
7193 500272 4792532
7194 500156 4792565
7195 500324 4792243
7196 500194 4792296
7197 500297 4792526
7198 500075 4792533
7199 500167 4792407
7200 500343 4792345
7201 499619 4796143
7202 499590 4795947
7203 499835 4796202
7204 499932 4795746
7205 499824 4795966
7206 499802 4795997
7207 499724 4795903
7208 499738 4796130
7209 499698 4796008
7210 499800 4795768
7211 499739 4795955
7212 499839 4796033
7213 499875 4795889
7214 499727 4795916
7215 499820 4795884
7216 499667 4795987
7217 499885 4795751
7218 499750 4795781
7219 499831 4796119
7220 499830 4795850
7221 499827 4796190
7222 499773 4795882
7223 499798 4796016
7224 499814 4796258
7225 499842 4796021
7226 499671 4796100
7227 499803 4796045
7228 499772 4796107
7229 499692 4795713
7230 499749 4795909
7231 499850 4796145
7232 499698 4796042
7233 499572 4795985
7234 499650 4795997
7235 499964 4796002
7236 499706 4795928
7237 499894 4795815
7238 499758 4795922
7239 499767 4796026
7240 499784 4795849
7241 499693 4795884
7242 499696 4795974
7243 499805 4795864
7244 499750 4795864
7245 499773 4796000
7246 502519 4786943
7247 502649 4786803
7248 502591 4786932
7249 502596 4786608
7250 502620 4786668
7251 502811 4786902
7252 502705 4786834
7253 502705 4786964
7254 502419 4786810
7255 502671 4786882
7256 502679 4786970
7257 502676 4786988
7258 502746 4786990
7259 502731 4786865
7260 502688 4787168
7261 502668 4787055
7262 502746 4786762
7263 502674 4786979
7264 502547 4786965
7265 502638 4787015
7266 502543 4786810
7267 502579 4786871
7268 502647 4786949
7269 502518 4786706
7270 502709 4786951
7271 502707 4786925
7272 502633 4787159
7273 502742 4786943
7274 502743 4787062
7275 502815 4786762
7276 502575 4786947
7277 502679 4786923
7278 502649 4786878
7279 502588 4786927
7280 502677 4787067
7281 502726 4787052
7282 502769 4786951
7283 502709 4786989
7284 502694 4787143
7285 502544 4787052
7286 502622 4787016
7287 502625 4786940
7288 502543 4787079
7289 502619 4786914
7290 502728 4786779
7291 499645 4792242
7292 499734 4792324
7293 499693 4792386
7294 499676 4792071
7295 499622 4792287
7296 499662 4792250
7297 499739 4792222
7298 499670 4792389
7299 499718 4792182
7300 499798 4792356
7301 499700 4792238
7302 499630 4792236
7303 499636 4792244
7304 499722 4792241
7305 499686 4792124
7306 499580 4791964
7307 499733 4792369
7308 499607 4792222
7309 499546 4792258
7310 499658 4792311
7311 499742 4792408
7312 499503 4792223
7313 499475 4792238
7314 499771 4791995
7315 499743 4792180
7316 499607 4792289
7317 499675 4792081
7318 499630 4791963
7319 499747 4792296
7320 499679 4792225
7321 499482 4792362
7322 499675 4792369
7323 499691 4792273
7324 499518 4792216
7325 499713 4792328
7326 499693 4791972
7327 499664 4792160
7328 499559 4792288
7329 499606 4792209
7330 499691 4791966
7331 499595 4791927
7332 499525 4792119
7333 499574 4792282
7334 499724 4792359
7335 499610 4792139
7336 501725 4794512
7337 501693 4794248
7338 501621 4794326
7339 501786 4794447
7340 501813 4794542
7341 501443 4794499
7342 501841 4794303
7343 501669 4794264
7344 501702 4794324
7345 501490 4794290
7346 501706 4794460
7347 501890 4794623
7348 501718 4794305
7349 501651 4794440
7350 501569 4794495
7351 501673 4794434
7352 501749 4794599
7353 501663 4794378
7354 501691 4794459
7355 501805 4794510
7356 501851 4794375
7357 501912 4794266
7358 501764 4794348
7359 501730 4794640
7360 501685 4794407
7361 501723 4794350
7362 501739 4794370
7363 501747 4794519
7364 501607 4794259
7365 501770 4794387
7366 501782 4794491
7367 501616 4794432
7368 501599 4794388
7369 501684 4794481
7370 501777 4794301
7371 501766 4794551
7372 501466 4794304
7373 501696 4794471
7374 501700 4794564
7375 501630 4794478
7376 501655 4794474
7377 501609 4794414
7378 501525 4794513
7379 501668 4794309
7380 501747 4794392
7381 498300 4791421
7382 498329 4791283
7383 498267 4791280
7384 498216 4791407
7385 498094 4791120
7386 498266 4791467
7387 498066 4791357
7388 498347 4791556
7389 498256 4791374
7390 498386 4791307
7391 498301 4791416
7392 498180 4791584
7393 498194 4791397
7394 498185 4791285
7395 498122 4791339
7396 498225 4791542
7397 497963 4791451
7398 498168 4791285
7399 498201 4791525
7400 498386 4791207
7401 498175 4791355
7402 498221 4791278
7403 498326 4791179
7404 498143 4791521
7405 498187 4791308
7406 498306 4791212
7407 498255 4791507
7408 498228 4791318
7409 498144 4791335
7410 498023 4791508
7411 498026 4791294
7412 498251 4791259
7413 498262 4791345
7414 498211 4791404
7415 498325 4791320
7416 498130 4791127
7417 498122 4791381
7418 498318 4791463
7419 498350 4791288
7420 498180 4791156
7421 498422 4791501
7422 498086 4791636
7423 498265 4791519
7424 498152 4791347
7425 498168 4791340
7426 496234 4797068
7427 496244 4796781
7428 496095 4796986
7429 496290 4796983
7430 496221 4797078
7431 496238 4797241
7432 496146 4796970
7433 496248 4797099
7434 496220 4797174
7435 496323 4796968
7436 496297 4796877
7437 496453 4796863
7438 496213 4796936
7439 496327 4796934
7440 496311 4797029
7441 496252 4797144
7442 496187 4797152
7443 496220 4796894
7444 496143 4797179
7445 496393 4797082
7446 496337 4797067
7447 496396 4797088
7448 496135 4796871
7449 496303 4797033
7450 496000 4796862
7451 496188 4797018
7452 496396 4796976
7453 496155 4796875
7454 496278 4797446
7455 496369 4797044
7456 496294 4797056
7457 496297 4796926
7458 496166 4797045
7459 496242 4797002
7460 496083 4796912
7461 496305 4796964
7462 496207 4796918
7463 496346 4796844
7464 496247 4796853
7465 496249 4797014
7466 496237 4796986
7467 496371 4796851
7468 496275 4797056
7469 496339 4796950
7470 496312 4796969
7471 496457 4789971
7472 496331 4790594
7473 496311 4790273
7474 496226 4790248
7475 496314 4790249
7476 496538 4790065
7477 496303 4790147
7478 496369 4790304
7479 496457 4790458
7480 496548 4790476
7481 496439 4790336
7482 496310 4790310
7483 496491 4790289
7484 496379 4790253
7485 496382 4790127
7486 496277 4790222
7487 496350 4790103
7488 496404 4790313
7489 496398 4790371
7490 496335 4790009
7491 496403 4790060
7492 496488 4790118
7493 496454 4790323
7494 496473 4790163
7495 496391 4790302
7496 496451 4790211
7497 496435 4790176
7498 496280 4790213
7499 496329 4790262
7500 496274 4790198
7501 496210 4790326
7502 496478 4790235
7503 496498 4790132
7504 496303 4790327
7505 496442 4790445
7506 496460 4790164
7507 496541 4790246
7508 496412 4790349
7509 496384 4790199
7510 496344 4790476
7511 496354 4790340
7512 496412 4790192
7513 496448 4790282
7514 496366 4790193
7515 496332 4790166
7516 502157 4797673
7517 502138 4797664
7518 502326 4797867
7519 502404 4797723
7520 502290 4797592
7521 502233 4797680
7522 502312 4797577
7523 502260 4797696
7524 502243 4797598
7525 502258 4797691
7526 502314 4797735
7527 502148 4797776
7528 502307 4797765
7529 502274 4797799
7530 502326 4797880
7531 502233 4797647
7532 502239 4797928
7533 502098 4797701
7534 502309 4797656
7535 502206 4797787
7536 502132 4797665
7537 502352 4797839
7538 502274 4797937
7539 502208 4797848
7540 502249 4797444
7541 502251 4797875
7542 502220 4797709
7543 502297 4797543
7544 502297 4797739
7545 502156 4797826
7546 502319 4797719
7547 502385 4797645
7548 502211 4797867
7549 502235 4797996
7550 502254 4797819
7551 502361 4797675
7552 502213 4797654
7553 502322 4797808
7554 502326 4797701
7555 502256 4797795
7556 502182 4797509
7557 502415 4797464
7558 502303 4797797
7559 502168 4797579
7560 502341 4797959
7561 502498 4794342
7562 502197 4794318
7563 502540 4794395
7564 502279 4794445
7565 502296 4794362
7566 502420 4794461
7567 502256 4794403
7568 502501 4794340
7569 502349 4794372
7570 502401 4794303
7571 502254 4794476
7572 502357 4794376
7573 502510 4794404
7574 502366 4794449
7575 502383 4794402
7576 502421 4794369
7577 502403 4794437
7578 502412 4794166
7579 502316 4794268
7580 502303 4794227
7581 502352 4794467
7582 502380 4794370
7583 502619 4794466
7584 502385 4794137
7585 502268 4794195
7586 502331 4794375
7587 502463 4794379
7588 502393 4794461
7589 502330 4794287
7590 502524 4794498
7591 502461 4794505
7592 502395 4794440
7593 502335 4794506
7594 502362 4794259
7595 502339 4794633
7596 502307 4794496
7597 502311 4794351
7598 502258 4794617
7599 502156 4794361
7600 502392 4794616
7601 502307 4794345
7602 502400 4794481
7603 502370 4794515
7604 502478 4794354
7605 502404 4794620
7606 503612 4786460
7607 503308 4786531
7608 503478 4786531
7609 503416 4786611
7610 503407 4786683
7611 503194 4786580
7612 503524 4786426
7613 503351 4786663
7614 503400 4786512
7615 503411 4786562
7616 503337 4786418
7617 503204 4786265
7618 503468 4786576
7619 503348 4786517
7620 503392 4786392
7621 503359 4786558
7622 503217 4786717
7623 503446 4786552
7624 503372 4786384
7625 503445 4786476
7626 503423 4786694
7627 503227 4786354
7628 503338 4786577
7629 503522 4786789
7630 503409 4786493
7631 503371 4786492
7632 503486 4786552
7633 503374 4786351
7634 503374 4786675
7635 503225 4786735
7636 503303 4786469
7637 503154 4786427
7638 503253 4786437
7639 503290 4786528
7640 503366 4786707
7641 503392 4786614
7642 503299 4786476
7643 503469 4786640
7644 503453 4786510
7645 503381 4786515
7646 503204 4786485
7647 503341 4786614
7648 503424 4786682
7649 503390 4786619
7650 503508 4786414
7651 502873 4794546
7652 502720 4794503
7653 503017 4794757
7654 503068 4794665
7655 502931 4794472
7656 502757 4794626
7657 502863 4794676
7658 502876 4794950
7659 502792 4794505
7660 502707 4794505
7661 503123 4794735
7662 502911 4794656
7663 502915 4794574
7664 502827 4794616
7665 502989 4794759
7666 502992 4794629
7667 502948 4794710
7668 502890 4794850
7669 503012 4794721
7670 502909 4794730
7671 502951 4794628
7672 503104 4794635
7673 502944 4794609
7674 502825 4794699
7675 503045 4794675
7676 502922 4794541
7677 502933 4794869
7678 502932 4794700
7679 502859 4794797
7680 503042 4794794
7681 503003 4794732
7682 503040 4794745
7683 502878 4794506
7684 502913 4794503
7685 502851 4794735
7686 502837 4794594
7687 503064 4794773
7688 502947 4794528
7689 502932 4794688
7690 502895 4794734
7691 502734 4794814
7692 502881 4794755
7693 502986 4794648
7694 503006 4794769
7695 502839 4794720
7696 501747 4788363
7697 501970 4788387
7698 501723 4788515
7699 501802 4788590
7700 501834 4788378
7701 501839 4788483
7702 501536 4788398
7703 501681 4788436
7704 501829 4788492
7705 501890 4788325
7706 501725 4788363
7707 501584 4788503
7708 501692 4788500
7709 501729 4788534
7710 501790 4788534
7711 501711 4788338
7712 501751 4788732
7713 501819 4788391
7714 501763 4788582
7715 501798 4788516
7716 501714 4788642
7717 501812 4788440
7718 501732 4788388
7719 501745 4788502
7720 501613 4788248
7721 501764 4788454
7722 501738 4788540
7723 501781 4788308
7724 501792 4788500
7725 501840 4788367
7726 501844 4788329
7727 501824 4788572
7728 501799 4788515
7729 501661 4788554
7730 501809 4788575
7731 501872 4788826
7732 501719 4788549
7733 501486 4788708
7734 501766 4788450
7735 501847 4788539
7736 501838 4788435
7737 501572 4788507
7738 501763 4788659
7739 501660 4788424
7740 501837 4788401
7741 501853 4791556
7742 501873 4791607
7743 501922 4791420
7744 501975 4791369
7745 501827 4791585
7746 501620 4791518
7747 501910 4791354
7748 502043 4791557
7749 501819 4791526
7750 501903 4791528
7751 501968 4791674
7752 501712 4791692
7753 501744 4791535
7754 501763 4791622
7755 501863 4791396
7756 501751 4791586
7757 501906 4791549
7758 501755 4791547
7759 501847 4791613
7760 501856 4791566
7761 501797 4791553
7762 501784 4791633
7763 501872 4791465
7764 501887 4791739
7765 501831 4791724
7766 501908 4791568
7767 501809 4791738
7768 502028 4791576
7769 501799 4791543
7770 502018 4791481
7771 501767 4791524
7772 501827 4791547
7773 502153 4791470
7774 501793 4791762
7775 501951 4791425
7776 501727 4791327
7777 501770 4791326
7778 501988 4791634
7779 501881 4791546
7780 501815 4791627
7781 501836 4791486
7782 501893 4791536
7783 501957 4791768
7784 501636 4791648
7785 501777 4791697
7786 498529 4797035
7787 498655 4796779
7788 498789 4797104
7789 498401 4796801
7790 498540 4796941
7791 498547 4796826
7792 498613 4797024
7793 498727 4796869
7794 498524 4797110
7795 498521 4796934
7796 498633 4796802
7797 498750 4796859
7798 498670 4797132
7799 498668 4796979
7800 498733 4796855
7801 498556 4796980
7802 498505 4797104
7803 498863 4796896
7804 498679 4797097
7805 498537 4796931
7806 498715 4796914
7807 498737 4797001
7808 498660 4796927
7809 498393 4796951
7810 498559 4797146
7811 498521 4796832
7812 498529 4796912
7813 498472 4796912
7814 498642 4796858
7815 498671 4797284
7816 498562 4797112
7817 498501 4796903
7818 498630 4796845
7819 498730 4797035
7820 498768 4796877
7821 498628 4797017
7822 498533 4797066
7823 498599 4797082
7824 498549 4797043
7825 498698 4796932
7826 498528 4796866
7827 498660 4796917
7828 498701 4796847
7829 498599 4797155
7830 498654 4796646
7831 503450 4788080
7832 503193 4787918
7833 503513 4788002
7834 503405 4788110
7835 503180 4787839
7836 503549 4787922
7837 503339 4787919
7838 503347 4788117
7839 503450 4787919
7840 503405 4787912
7841 503467 4788004
7842 503425 4787921
7843 503290 4787860
7844 503478 4787947
7845 503316 4787918
7846 503301 4788026
7847 503469 4787818
7848 503547 4787920
7849 503294 4788000
7850 503385 4787843
7851 503176 4788019
7852 503432 4787926
7853 503525 4787704
7854 503408 4788039
7855 503404 4787929
7856 503444 4788177
7857 503399 4788043
7858 503367 4788135
7859 503444 4788025
7860 503508 4788030
7861 503382 4787961
7862 503505 4787833
7863 503393 4788008
7864 503395 4787941
7865 503511 4787981
7866 503415 4787665
7867 503304 4787926
7868 503298 4787817
7869 503432 4787926
7870 503348 4788131
7871 503234 4787934
7872 503308 4788045
7873 503399 4787852
7874 503520 4787873
7875 503446 4788256
7876 496176 4789036
7877 496162 4789033
7878 496398 4788768
7879 496271 4788849
7880 496104 4789181
7881 496154 4789091
7882 496234 4788936
7883 496149 4788954
7884 496306 4788889
7885 496443 4789167
7886 496238 4789059
7887 496201 4788997
7888 496412 4789095
7889 496377 4788904
7890 496382 4789088
7891 496141 4789301
7892 496487 4789086
7893 496227 4788948
7894 496205 4789037
7895 496266 4788880
7896 496252 4789046
7897 496374 4788942
7898 496280 4788852
7899 496362 4789000
7900 496208 4788866
7901 496099 4788975
7902 496236 4789177
7903 496226 4788975
7904 496131 4788803
7905 496369 4788888
7906 496196 4788914
7907 496211 4789168
7908 496276 4789115
7909 496158 4789143
7910 496192 4788934
7911 496220 4789196
7912 496244 4788966
7913 496379 4789179
7914 496255 4788833
7915 496266 4789169
7916 496197 4789259
7917 496329 4789242
7918 496239 4788877
7919 496311 4789116
7920 496202 4789094
7921 496028 4786328
7922 496094 4786208
7923 496027 4786304
7924 496094 4786136
7925 496080 4786173
7926 496076 4786000
7927 496151 4786043
7928 496011 4786210
7929 496079 4786451
7930 496000 4786062
7931 496127 4786157
7932 496000 4786043
7933 496085 4786015
7934 496159 4786196
7935 496000 4786069
7936 496000 4786328
7937 496000 4786158
7938 496020 4786299
7939 496086 4786333
7940 496000 4786300
7941 496102 4786107
7942 496000 4786134
7943 496000 4786353
7944 496000 4786066
7945 496000 4786216
7946 496029 4786083
7947 496036 4786201
7948 496033 4786236
7949 496157 4786312
7950 496034 4786188
7951 496000 4786024
7952 496072 4786219
7953 496195 4786056
7954 496070 4786324
7955 496000 4786106
7956 496000 4786183
7957 496000 4786174
7958 496000 4786075
7959 496017 4786242
7960 496000 4786242
7961 496000 4786389
7962 496110 4786259
7963 496000 4786151
7964 496082 4786099
7965 496002 4786211
7966 501718 4787562
7967 501584 4787695
7968 501787 4787649
7969 501832 4787701
7970 501625 4787698
7971 501653 4787863
7972 501558 4787723
7973 501720 4787573
7974 501803 4787710
7975 501705 4787687
7976 501637 4787795
7977 501721 4787759
7978 501647 4787660
7979 501740 4787807
7980 501667 4787835
7981 501617 4787684
7982 501635 4787479
7983 501755 4787708
7984 501719 4787549
7985 501589 4787787
7986 501588 4787747
7987 501478 4787457
7988 501794 4787771
7989 501653 4787813
7990 501621 4787738
7991 501760 4787642
7992 501702 4787663
7993 501642 4787779
7994 501693 4788019
7995 501731 4787711
7996 501731 4787620
7997 501856 4787745
7998 501729 4787787
7999 501700 4787444
8000 501594 4787804
8001 501722 4787508
8002 501560 4787798
8003 501672 4787542
8004 501769 4787666
8005 501599 4787636
8006 501659 4787919
8007 501644 4787623
8008 501645 4787638
8009 501700 4787742
8010 501827 4787730
8011 499190 4796372
8012 499272 4796472
8013 499339 4796750
8014 499321 4796464
8015 499290 4796686
8016 499348 4796560
8017 499328 4796359
8018 499267 4796399
8019 499279 4796736
8020 499321 4796439
8021 499323 4796473
8022 499423 4796457
8023 499279 4796529
8024 499325 4796372
8025 499350 4796268
8026 499438 4796422
8027 499377 4796507
8028 499382 4796436
8029 499237 4796416
8030 499334 4796659
8031 499479 4796304
8032 499270 4796540
8033 499280 4796606
8034 499126 4796341
8035 499475 4796315
8036 499397 4796298
8037 499178 4796420
8038 499207 4796379
8039 499181 4796400
8040 499200 4796468
8041 499340 4796625
8042 499305 4796536
8043 499299 4796551
8044 499411 4796672
8045 499343 4796561
8046 499396 4796411
8047 499401 4796616
8048 499071 4796675
8049 499421 4796452
8050 499176 4796512
8051 499320 4796502
8052 499337 4796522
8053 499243 4796361
8054 499325 4796648
8055 499341 4796506
8056 499245 4792699
8057 499098 4792776
8058 499226 4792846
8059 499212 4792745
8060 499265 4792839
8061 499207 4792885
8062 499206 4792878
8063 499141 4793000
8064 499303 4792815
8065 499291 4792870
8066 499302 4792996
8067 499260 4792834
8068 499441 4792880
8069 499181 4792847
8070 499233 4792988
8071 499256 4792899
8072 499324 4792868
8073 499146 4792815
8074 499125 4792985
8075 499272 4792727
8076 499320 4792721
8077 499171 4792940
8078 499349 4792803
8079 499127 4792781
8080 499227 4792963
8081 499367 4792610
8082 499112 4792935
8083 499112 4792880
8084 499294 4793047
8085 499158 4793010
8086 499378 4792749
8087 499242 4792888
8088 499273 4792871
8089 499211 4793255
8090 499113 4792748
8091 499164 4792812
8092 499261 4792803
8093 499333 4792987
8094 499317 4792850
8095 499132 4792704
8096 499284 4792818
8097 499270 4792710
8098 499229 4792873
8099 499234 4792650
8100 499242 4792904
8101 499297 4790119
8102 499093 4789979
8103 499163 4790221
8104 499063 4790162
8105 499237 4789914
8106 499113 4790009
8107 499102 4789935
8108 499031 4790179
8109 499243 4790282
8110 499131 4790136
8111 499154 4790054
8112 499114 4790103
8113 499253 4790196
8114 499149 4790172
8115 499004 4790196
8116 499103 4790232
8117 499260 4790122
8118 499249 4790129
8119 499234 4790104
8120 499184 4790101
8121 499121 4790048
8122 499106 4790286
8123 499135 4790264
8124 499205 4790101
8125 499070 4790057
8126 499077 4790201
8127 499179 4790282
8128 499102 4790182
8129 499088 4790160
8130 499033 4790078
8131 499135 4789908
8132 499145 4790120
8133 499146 4790284
8134 499275 4790322
8135 499292 4790309
8136 499176 4790098
8137 499196 4790253
8138 499149 4790153
8139 499270 4789821
8140 499220 4789976
8141 499104 4790223
8142 499140 4790189
8143 499070 4790334
8144 498967 4790094
8145 499175 4790024
8146 498977 4792803
8147 499295 4792996
8148 499063 4793098
8149 499206 4793064
8150 499148 4793072
8151 499077 4792975
8152 498932 4792895
8153 499026 4793050
8154 499023 4792875
8155 499042 4792981
8156 499083 4792861
8157 499241 4793124
8158 499144 4792923
8159 498950 4793017
8160 498909 4793078
8161 499123 4793040
8162 499114 4793193
8163 499191 4792874
8164 498973 4792793
8165 498949 4792848
8166 499006 4793115
8167 499133 4793179
8168 499062 4793007
8169 499157 4792932
8170 499096 4793179
8171 499089 4792901
8172 499003 4792966
8173 499077 4792948
8174 499067 4792815
8175 499212 4793119
8176 499121 4793086
8177 498904 4793284
8178 499148 4792883
8179 498968 4792841
8180 498955 4792898
8181 499050 4793128
8182 499020 4792970
8183 499111 4792707
8184 499113 4792871
8185 499082 4793159
8186 499085 4792834
8187 499145 4792962
8188 498895 4792925
8189 498978 4793073
8190 498821 4792964
8191 502929 4798000
8192 502994 4798000
8193 502889 4798000
8194 502851 4798000
8195 502656 4798000
8196 502917 4797882
8197 502963 4797731
8198 502869 4797870
8199 502914 4797963
8200 502847 4797886
8201 502886 4797831
8202 502886 4798000
8203 502833 4797891
8204 502958 4797969
8205 502875 4798000
8206 502834 4798000
8207 502980 4797978
8208 502970 4798000
8209 502853 4797970
8210 502913 4797778
8211 502953 4797625
8212 502785 4798000
8213 502904 4797916
8214 503013 4797997
8215 502942 4798000
8216 503054 4797937
8217 502903 4797902
8218 502969 4797983
8219 502719 4798000
8220 502798 4797933
8221 502826 4797769
8222 502908 4798000
8223 502891 4797938
8224 502831 4798000
8225 502909 4798000
8226 502885 4798000
8227 502872 4797989
8228 502892 4798000
8229 502850 4797990
8230 503001 4798000
8231 502922 4797967
8232 502828 4797881
8233 503021 4797978
8234 502974 4797891
8235 502909 4797823
8236 502139 4787512
8237 502184 4787586
8238 502279 4787496
8239 502253 4787586
8240 502161 4787530
8241 502112 4787352
8242 502206 4787359
8243 502155 4787591
8244 502141 4787609
8245 502113 4787226
8246 502267 4787654
8247 502304 4787461
8248 502223 4787566
8249 502122 4787417
8250 502132 4787402
8251 502243 4787645
8252 502171 4787561
8253 502073 4787432
8254 502192 4787502
8255 502121 4787751
8256 502119 4787732
8257 502056 4787398
8258 502152 4787439
8259 502215 4787593
8260 502305 4787304
8261 502136 4787647
8262 502317 4787514
8263 502119 4787549
8264 502203 4787621
8265 502152 4787649
8266 502173 4787681
8267 502106 4787355
8268 502246 4787594
8269 502156 4787425
8270 502199 4787533
8271 502144 4787641
8272 502227 4787499
8273 502225 4787693
8274 502179 4787590
8275 502284 4787536
8276 502168 4787486
8277 502134 4787306
8278 502109 4787816
8279 502372 4787534
8280 502066 4787315
8281 502239 4789799
8282 502138 4789865
8283 502192 4789749
8284 502078 4789888
8285 502286 4789995
8286 502074 4789781
8287 502072 4789489
8288 502326 4789866
8289 501980 4789917
8290 502058 4789789
8291 502159 4789738
8292 502076 4789511
8293 502109 4789680
8294 502171 4789742
8295 502081 4789802
8296 501905 4789860
8297 502185 4789673
8298 502080 4789701
8299 502072 4789757
8300 502076 4789920
8301 502152 4789789
8302 502111 4789935
8303 502020 4789668
8304 502022 4789676
8305 502107 4789599
8306 501982 4789876
8307 502247 4789747
8308 502180 4789858
8309 502109 4789982
8310 502093 4789566
8311 502101 4789714
8312 501905 4789564
8313 502033 4789654
8314 502107 4789703
8315 502074 4789521
8316 502094 4789806
8317 502123 4789867
8318 502134 4789607
8319 502093 4789586
8320 502078 4789549
8321 502046 4789724
8322 502125 4789857
8323 502060 4789894
8324 502204 4789708
8325 501910 4789603
8326 501398 4789213
8327 501292 4789330
8328 501495 4789384
8329 501299 4789220
8330 501224 4789384
8331 501484 4789308
8332 501341 4789322
8333 501425 4789496
8334 501582 4789440
8335 501277 4789492
8336 501443 4789415
8337 501322 4789317
8338 501219 4789229
8339 501578 4789154
8340 501287 4789458
8341 501455 4789433
8342 501435 4789428
8343 501220 4789141
8344 501260 4789462
8345 501368 4789554
8346 501384 4789414
8347 501234 4789438
8348 501372 4789359
8349 501395 4789139
8350 501386 4789464
8351 501259 4789266
8352 501454 4789289
8353 501304 4789329
8354 501387 4789285
8355 501278 4789638
8356 501349 4789239
8357 501463 4789417
8358 501468 4789159
8359 501419 4789251
8360 501441 4789437
8361 501561 4789156
8362 501303 4789269
8363 501350 4789475
8364 501441 4789395
8365 501382 4789380
8366 501357 4789309
8367 501549 4789452
8368 501468 4789327
8369 501419 4789279
8370 501469 4789469
8371 498576 4790087
8372 498771 4790072
8373 498708 4790173
8374 498571 4790233
8375 498686 4789969
8376 498602 4789902
8377 498652 4789965
8378 498868 4790013
8379 498680 4790168
8380 498682 4790008
8381 498682 4790036
8382 498756 4790050
8383 498564 4789915
8384 498755 4790144
8385 498743 4790090
8386 498710 4790082
8387 498733 4789948
8388 498691 4790027
8389 498686 4789938
8390 498702 4789961
8391 498692 4789923
8392 498684 4790090
8393 498602 4790161
8394 498785 4790098
8395 498649 4790067
8396 498804 4790011
8397 498586 4790095
8398 498769 4790001
8399 498653 4790001
8400 498737 4790286
8401 498766 4789861
8402 498741 4789968
8403 498792 4790175
8404 498762 4790161
8405 498597 4790016
8406 498597 4790169
8407 498641 4789977
8408 498722 4790048
8409 498729 4790038
8410 498820 4790140
8411 498588 4790081
8412 498714 4790215
8413 498614 4789909
8414 498718 4790280
8415 498684 4789959
8416 501708 4787587
8417 501657 4787481
8418 501684 4787692
8419 501836 4787508
8420 501842 4787639
8421 501540 4787602
8422 501772 4787451
8423 501753 4787885
8424 501685 4787836
8425 501574 4787630
8426 501534 4787508
8427 501802 4787442
8428 501766 4787472
8429 501649 4787722
8430 501803 4787728
8431 501703 4787728
8432 501725 4787256
8433 501734 4787834
8434 501737 4787743
8435 501612 4787809
8436 501686 4787677
8437 501709 4787618
8438 501473 4787643
8439 501658 4787732
8440 501563 4787461
8441 501716 4787565
8442 501693 4787692
8443 501720 4787869
8444 501627 4787469
8445 501730 4787926
8446 501658 4787470
8447 501798 4787817
8448 501566 4787447
8449 501640 4787810
8450 501684 4787720
8451 501594 4787752
8452 501813 4787918
8453 501747 4787660
8454 501594 4787644
8455 501709 4787680
8456 501690 4787614
8457 501693 4787608
8458 501758 4787712
8459 501773 4787672
8460 501690 4787572
8461 501701 4793444
8462 501654 4793509
8463 501941 4793572
8464 501795 4793403
8465 501628 4793398
8466 501773 4793492
8467 501832 4793580
8468 501779 4793741
8469 501739 4793743
8470 501760 4793640
8471 501828 4793447
8472 501730 4793525
8473 501796 4793592
8474 501829 4793638
8475 501765 4793646
8476 501926 4793540
8477 501719 4793577
8478 501741 4793450
8479 501689 4793584
8480 501762 4793665
8481 501687 4793506
8482 501794 4793580
8483 501909 4793543
8484 501731 4793697
8485 501689 4793583
8486 501783 4793413
8487 501729 4793563
8488 501934 4793604
8489 501765 4793415
8490 501741 4793432
8491 501725 4793544
8492 501866 4793618
8493 501828 4793606
8494 501800 4793438
8495 501774 4793576
8496 501923 4793438
8497 501775 4793349
8498 501558 4793381
8499 501759 4793637
8500 501711 4793435
8501 501743 4793730
8502 501842 4793837
8503 501806 4793476
8504 501755 4793443
8505 501898 4793721
8506 497470 4787017
8507 497194 4786926
8508 497250 4787199
8509 497323 4786795
8510 497412 4786994
8511 496988 4787098
8512 497174 4786840
8513 497277 4786922
8514 497346 4787114
8515 497183 4787243
8516 497207 4787082
8517 497240 4786874
8518 497291 4786967
8519 497238 4786923
8520 497091 4787129
8521 497278 4787195
8522 497233 4787147
8523 497343 4787030
8524 497288 4787219
8525 497282 4787204
8526 497216 4787146
8527 497246 4786800
8528 497225 4786948
8529 497302 4786972
8530 497227 4787026
8531 497230 4786917
8532 497309 4787155
8533 497092 4786911
8534 497302 4787166
8535 497109 4787051
8536 497187 4786969
8537 497327 4787253
8538 497202 4787153
8539 497287 4786920
8540 497079 4786904
8541 497278 4786856
8542 497355 4786901
8543 497263 4787045
8544 497100 4786747
8545 497247 4786908
8546 497208 4786944
8547 497269 4787216
8548 497238 4787020
8549 497271 4787083
8550 497108 4787051
8551 497494 4790328
8552 497444 4790410
8553 497565 4790140
8554 497635 4790412
8555 497564 4790276
8556 497578 4790247
8557 497565 4790353
8558 497728 4790236
8559 497534 4790151
8560 497556 4790260
8561 497426 4790160
8562 497503 4790105
8563 497426 4790267
8564 497443 4790225
8565 497516 4790101
8566 497278 4790334
8567 497520 4790179
8568 497437 4790144
8569 497423 4790377
8570 497534 4790114
8571 497555 4790092
8572 497446 4790187
8573 497493 4790454
8574 497502 4790489
8575 497571 4790421
8576 497591 4790132
8577 497340 4790277
8578 497337 4790265
8579 497487 4790177
8580 497464 4790442
8581 497634 4790358
8582 497596 4790236
8583 497507 4790276
8584 497587 4790332
8585 497416 4790286
8586 497528 4790260
8587 497439 4790362
8588 497492 4790298
8589 497440 4790206
8590 497468 4790090
8591 497424 4790030
8592 497582 4790232
8593 497415 4790338
8594 497533 4790150
8595 497500 4790231
8596 497421 4797651
8597 497588 4797716
8598 497579 4797584
8599 497476 4797751
8600 497490 4797267
8601 497500 4797614
8602 497589 4797585
8603 497490 4797558
8604 497653 4797695
8605 497536 4797488
8606 497651 4797490
8607 497421 4797616
8608 497675 4797554
8609 497649 4797551
8610 497622 4797559
8611 497576 4797573
8612 497369 4797569
8613 497494 4797457
8614 497563 4797591
8615 497491 4797453
8616 497421 4797491
8617 497473 4797534
8618 497585 4797317
8619 497617 4797776
8620 497458 4797344
8621 497402 4797344
8622 497432 4797553
8623 497489 4797637
8624 497583 4797699
8625 497498 4797584
8626 497447 4797575
8627 497660 4797487
8628 497429 4797347
8629 497454 4797469
8630 497504 4797635
8631 497600 4797520
8632 497392 4797484
8633 497630 4797272
8634 497552 4797415
8635 497568 4797587
8636 497525 4797586
8637 497568 4797347
8638 497568 4797591
8639 497474 4797585
8640 497535 4797776
8641 502796 4793945
8642 502564 4793709
8643 502669 4793835
8644 502713 4794099
8645 502469 4793842
8646 502634 4794152
8647 502461 4794060
8648 502624 4794220
8649 502757 4793993
8650 502536 4793939
8651 502672 4794112
8652 502513 4794115
8653 502531 4794102
8654 502576 4794175
8655 502543 4793858
8656 502680 4793952
8657 502547 4794028
8658 502680 4794005
8659 502696 4793944
8660 502738 4793845
8661 502547 4793871
8662 502508 4793975
8663 502647 4794030
8664 502776 4793730
8665 502691 4794014
8666 502524 4794061
8667 502690 4794057
8668 502689 4794149
8669 502614 4793951
8670 502599 4794074
8671 502632 4793865
8672 502648 4793982
8673 502492 4793906
8674 502705 4793781
8675 502625 4793997
8676 502617 4793896
8677 502673 4793983
8678 502456 4793811
8679 502667 4794133
8680 502590 4794001
8681 502436 4794016
8682 502498 4793900
8683 502674 4794073
8684 502542 4793998
8685 502611 4794025
8686 500204 4797221
8687 500219 4796983
8688 500152 4796906
8689 500154 4797162
8690 500211 4797125
8691 500271 4797041
8692 500239 4796990
8693 500088 4796856
8694 500182 4797107
8695 500047 4796969
8696 500229 4796997
8697 500166 4797033
8698 500169 4796940
8699 500203 4796927
8700 500200 4796933
8701 500128 4797141
8702 500250 4796918
8703 500189 4797153
8704 500229 4797156
8705 500202 4796905
8706 500256 4796960
8707 500107 4796829
8708 500183 4796905
8709 500364 4796958
8710 500141 4796984
8711 500182 4797028
8712 500264 4797088
8713 500148 4796958
8714 500073 4796778
8715 500156 4796896
8716 500336 4797273
8717 500294 4797021
8718 500228 4797169
8719 500114 4797044
8720 500204 4796975
8721 500327 4797166
8722 500158 4797003
8723 500112 4797010
8724 500233 4796902
8725 500172 4797097
8726 500159 4797006
8727 500161 4796886
8728 500196 4797029
8729 500363 4797043
8730 500293 4796856
8731 498342 4790217
8732 498535 4790205
8733 498354 4790348
8734 498303 4790475
8735 498392 4790450
8736 498337 4790379
8737 498333 4790269
8738 498548 4790427
8739 498365 4790235
8740 498410 4790285
8741 498504 4790341
8742 498372 4790230
8743 498484 4790487
8744 498293 4790441
8745 498328 4790450
8746 498508 4790438
8747 498392 4790237
8748 498409 4790082
8749 498376 4790196
8750 498448 4790305
8751 498249 4790190
8752 498446 4790262
8753 498273 4790318
8754 498342 4790297
8755 498230 4790407
8756 498377 4790282
8757 498399 4790431
8758 498278 4790226
8759 498274 4790486
8760 498530 4790290
8761 498394 4790146
8762 498336 4790290
8763 498528 4790277
8764 498362 4790152
8765 498395 4790434
8766 498307 4790168
8767 498287 4790256
8768 498227 4790366
8769 498345 4790462
8770 498592 4790214
8771 498440 4790334
8772 498327 4790374
8773 498299 4790203
8774 498546 4790261
8775 498579 4790162
8776 502360 4790391
8777 502217 4790382
8778 502321 4790135
8779 502290 4790339
8780 502251 4790577
8781 502339 4790649
8782 502411 4790464
8783 502285 4790605
8784 502356 4790481
8785 502442 4790395
8786 502352 4790531
8787 502402 4790360
8788 502370 4790130
8789 502263 4790664
8790 502293 4790408
8791 502301 4790273
8792 502372 4790439
8793 502415 4790282
8794 502312 4790455
8795 502373 4790340
8796 502411 4790408
8797 502340 4790435
8798 502427 4790423
8799 502472 4790515
8800 502282 4790345
8801 502298 4790385
8802 502331 4790370
8803 502277 4790527
8804 502299 4790425
8805 502389 4790330
8806 502306 4790360
8807 502424 4790603
8808 502433 4790445
8809 502422 4790412
8810 502267 4790386
8811 502464 4790564
8812 502255 4790575
8813 502407 4790586
8814 502363 4790433
8815 502272 4790460
8816 502269 4790321
8817 502398 4790488
8818 502210 4790407
8819 502354 4790319
8820 502373 4790524
8821 504258 4790886
8822 504266 4790984
8823 504328 4791283
8824 504212 4790983
8825 504150 4791080
8826 504267 4791206
8827 504304 4791249
8828 504276 4791007
8829 504472 4791127
8830 504328 4791082
8831 504128 4790964
8832 504342 4791267
8833 504284 4791007
8834 504110 4791060
8835 504320 4790835
8836 504369 4790999
8837 504331 4791049
8838 504216 4791373
8839 504222 4791131
8840 504358 4790920
8841 504237 4791310
8842 504172 4790828
8843 504303 4791068
8844 504276 4791022
8845 504167 4791021
8846 504203 4791279
8847 504236 4791243
8848 504270 4791241
8849 504241 4791054
8850 504145 4790989
8851 504183 4791155
8852 504138 4791027
8853 504418 4791176
8854 504215 4791180
8855 504255 4791083
8856 504293 4790984
8857 504411 4790994
8858 504211 4791040
8859 504098 4791003
8860 504164 4791106
8861 504301 4791115
8862 504241 4791143
8863 504245 4791152
8864 504319 4790968
8865 504374 4790997
8866 496755 4792055
8867 496903 4791860
8868 496736 4792283
8869 496804 4791663
8870 496785 4791962
8871 496852 4792081
8872 496808 4791957
8873 496855 4791811
8874 496940 4791937
8875 496890 4792154
8876 496886 4792106
8877 496761 4791995
8878 496783 4792218
8879 496850 4791924
8880 496843 4792053
8881 496889 4791877
8882 497058 4791774
8883 496759 4791887
8884 496812 4792019
8885 496728 4791872
8886 496820 4792160
8887 496716 4792018
8888 496735 4791854
8889 496785 4792169
8890 496929 4791767
8891 496897 4791883
8892 496676 4792149
8893 496796 4792091
8894 496757 4792099
8895 496831 4792058
8896 496812 4791919
8897 496710 4791903
8898 496784 4791883
8899 496923 4792143
8900 496945 4791876
8901 496940 4791985
8902 496958 4792109
8903 496747 4791953
8904 496673 4791826
8905 496804 4792131
8906 496871 4791976
8907 496829 4791948
8908 496845 4792167
8909 496873 4792230
8910 496837 4792234
8911 501704 4796151
8912 501670 4796029
8913 501730 4796065
8914 501625 4796161
8915 501765 4795967
8916 501636 4796121
8917 501533 4796034
8918 501752 4796175
8919 501612 4796037
8920 501681 4796077
8921 501669 4796333
8922 501731 4796301
8923 501752 4796189
8924 501686 4796083
8925 501668 4796126
8926 501937 4796451
8927 501726 4796145
8928 501664 4796225
8929 501756 4796361
8930 501843 4796202
8931 501550 4796437
8932 501647 4796065
8933 501759 4796190
8934 501616 4796089
8935 501617 4796164
8936 501684 4796205
8937 501809 4796341
8938 501812 4796199
8939 501696 4796188
8940 501594 4796149
8941 501582 4796084
8942 501687 4796332
8943 501720 4796160
8944 501778 4796008
8945 501668 4796299
8946 501613 4795975
8947 501698 4796141
8948 501696 4796158
8949 501661 4796083
8950 501775 4796153
8951 501727 4796225
8952 501664 4796101
8953 501915 4795875
8954 501730 4796171
8955 501757 4796150
8956 501470 4793850
8957 501612 4793887
8958 501428 4793804
8959 501645 4793906
8960 501478 4793765
8961 501624 4793744
8962 501518 4793883
8963 501704 4793806
8964 501541 4793954
8965 501465 4793769
8966 501539 4794029
8967 501641 4793824
8968 501597 4793893
8969 501550 4793856
8970 501601 4793871
8971 501548 4793818
8972 501575 4793719
8973 501645 4793992
8974 501562 4793912
8975 501562 4793809
8976 501463 4794132
8977 501615 4793691
8978 501570 4793984
8979 501541 4793978
8980 501524 4794054
8981 501491 4793918
8982 501526 4794077
8983 501553 4793627
8984 501533 4794075
8985 501525 4793980
8986 501645 4793728
8987 501406 4793777
8988 501514 4793955
8989 501622 4794004
8990 501494 4793634
8991 501634 4793999
8992 501573 4794051
8993 501607 4793817
8994 501614 4793669
8995 501449 4793978
8996 501652 4793870
8997 501587 4793823
8998 501478 4793829
8999 501551 4793642
9000 501481 4793392
9001 503939 4786117
9002 497117 4788718
9003 502180 4795105
9004 502113 4789240
9005 497354 4793521
9006 501831 4788630
9007 503409 4790412
9008 504430 4792706
9009 500472 4789422
9010 500011 4786280
9011 500841 4795730
9012 502420 4794982
9013 496460 4796349
9014 499113 4794186
9015 501067 4787685
9016 496538 4795951
9017 497973 4797851
9018 501633 4793637
9019 504031 4793506
9020 500322 4791949
9021 500578 4790696
9022 499042 4791243
9023 497628 4788074
9024 498441 4791940
9025 497464 4789444
9026 499609 4791935
9027 503249 4797639
9028 498056 4793939
9029 504394 4790587
9030 503287 4786913
9031 499816 4789312
9032 497735 4795907
9033 502964 4794372
9034 502438 4788527
9035 501830 4792434
9036 499189 4795087
9037 496495 4794837
9038 504154 4789578
9039 501896 4794057
9040 500817 4786838
9041 499184 4792137
9042 496187 4793023
9043 501950 4796853
9044 497502 4797665
9045 497115 4794418
9046 502853 4793047
9047 497722 4796762
9048 498132 4789217
9049 499701 4786278
9050 504428 4796950
9051 496040 4786889
9052 497550 4789827
9053 502290 4791749
9054 500071 4796654
9055 499725 4787001
9056 498191 4789129
9057 499597 4793187
9058 497946 4795908
9059 501324 4797631
9060 496213 4786147
9061 500604 4797222
9062 502753 4791854
9063 499304 4791737
9064 502409 4797805
9065 497516 4787687
9066 497069 4791665
9067 501409 4786356
9068 504308 4789690
9069 500853 4793271
9070 496551 4793711
9071 499475 4793323
9072 499622 4787518
9073 496063 4791244
9074 499406 4797435
9075 499665 4787511
9076 504067 4790267
9077 498825 4790546
9078 501603 4795290
9079 500699 4789387
9080 497202 4787529
9081 500556 4796007
9082 497851 4797824
9083 503004 4790705
9084 502953 4797320
9085 501999 4792324
9086 503261 4791597
9087 498852 4797996
9088 496117 4795615
9089 498058 4786380
9090 501687 4793861
9091 501266 4794604
9092 497440 4797845
9093 496866 4790915
9094 497314 4794037
9095 503003 4787928
9096 499555 4796614
9097 498619 4791861
9098 498753 4792040
9099 501294 4794401
9100 499615 4787155
9101 501903 4795635
9102 502733 4793775
9103 498917 4793939
9104 503545 4793805
9105 503834 4788543
9106 503958 4789004
9107 498989 4786175
9108 498260 4794046
9109 502314 4787043
9110 501924 4790724
9111 500905 4790195
9112 502616 4790078
9113 496670 4791998
9114 498784 4796301
9115 504462 4797267
9116 503541 4786954
9117 500626 4791191
9118 497208 4790796
9119 496008 4788973
9120 502234 4787979
9121 501035 4787607
9122 497200 4789576
9123 501529 4787033
9124 500232 4795261
9125 501640 4794856
9126 501770 4786394
9127 501091 4793096
9128 502740 4788011
9129 496341 4788986
9130 499269 4793042
9131 498739 4789220
9132 500271 4790251
9133 503622 4791937
9134 501737 4786947
9135 498867 4795263
9136 501100 4792007
9137 503061 4797877
9138 497779 4792169
9139 500798 4792998
9140 503515 4789525
9141 503970 4793273
9142 499245 4788248
9143 502066 4790270
9144 502475 4794314
9145 503722 4788388
9146 503188 4794378
9147 502193 4797882
9148 501714 4794961
9149 501725 4793148
9150 496890 4792285
9151 498064 4791739
9152 499517 4788453
9153 501451 4796605
9154 504207 4787807
9155 499808 4788895
9156 501014 4794856
9157 503827 4795704
9158 499624 4796982
9159 503819 4791998
9160 501019 4794409
9161 502357 4786973
9162 504252 4793447
9163 500535 4789828
9164 501262 4788569
9165 502146 4797662
9166 497755 4791719
9167 497197 4791887
9168 504165 4786987
9169 500971 4790221
9170 499108 4797420
9171 499257 4793519
9172 500602 4793664
9173 497238 4791936
9174 500746 4786207
9175 501411 4797427
9176 499192 4791693
9177 501374 4792996
9178 496577 4791229
9179 503902 4791047
9180 498221 4788073
9181 501481 4792205
9182 501774 4791615
9183 498300 4794039
9184 502711 4792227
9185 500971 4796442
9186 499012 4788033
9187 503738 4789894
9188 502146 4788638
9189 502356 4790485
9190 497879 4795889
9191 502534 4790581
9192 500972 4789277
9193 496957 4791897
9194 503637 4787183
9195 501093 4795886
9196 498239 4787460
9197 501483 4787079
9198 496879 4793827
9199 500837 4793390
9200 498815 4794209
9201 502144 4786122
9202 499279 4791565
9203 504239 4789894
9204 504378 4790789
9205 502817 4786803
9206 496478 4795963
9207 503741 4794624
9208 500948 4796474
9209 496628 4792503
9210 500297 4789159
9211 503791 4794580
9212 503080 4792719
9213 503516 4793449
9214 496795 4792725
9215 498923 4794324
9216 501431 4789742
9217 500716 4797489
9218 498479 4789493
9219 503323 4789454
9220 500463 4795716
9221 496750 4795800
9222 497250 4792770
9223 500834 4786677
9224 503264 4790230
9225 500147 4797573
9226 500433 4789824
9227 497812 4796739
9228 498422 4786484
9229 502181 4786486
9230 502770 4791787
9231 496765 4797771
9232 504173 4792550
9233 502545 4796584
9234 498317 4797555
9235 497491 4792792
9236 503528 4793155
9237 503853 4794187
9238 502313 4795752
9239 501790 4786366
9240 501080 4792384
9241 503641 4797706
9242 502396 4789233
9243 501111 4787391
9244 498884 4792840
9245 500725 4790128
9246 498293 4796346
9247 497921 4796907
9248 500256 4788630
9249 499355 4788105
9250 503977 4787784
9251 497678 4790446
9252 500597 4793383
9253 499272 4791497
9254 500215 4789187
9255 496860 4793851
9256 500894 4786686
9257 498908 4791077
9258 499983 4796047
9259 497784 4797433
9260 498950 4786832
9261 498877 4790176
9262 501714 4796510
9263 504318 4796481
9264 499930 4797104
9265 498307 4790560
9266 496527 4795794
9267 498112 4786002
9268 496964 4793291
9269 501006 4786854
9270 497722 4796528
9271 501355 4796481
9272 496919 4797841
9273 497497 4789229
9274 499787 4797373
9275 498334 4792086
9276 503174 4797607
9277 499497 4797594
9278 497490 4789156
9279 501530 4790123
9280 499251 4790550
9281 501396 4795019
9282 497730 4788253
9283 499057 4795220
9284 499822 4792681
9285 503439 4790042
9286 496560 4786031
9287 500373 4794411
9288 501358 4797906
9289 501933 4787664
9290 497468 4791060
9291 497455 4796997
9292 503416 4787069
9293 503422 4786571
9294 502819 4791079
9295 499637 4791940
9296 501187 4790607
9297 498719 4794748
9298 499486 4790137
9299 503270 4797315
9300 497132 4790372
9301 500728 4793551
9302 501117 4796518
9303 499422 4787093
9304 499982 4793852
9305 501189 4793774
9306 503538 4794204
9307 501434 4789850
9308 503939 4795731
9309 500378 4797540
9310 502575 4794952
9311 503547 4795560
9312 498277 4788601
9313 502064 4794553
9314 498527 4787175
9315 500155 4796976
9316 503346 4790262
9317 499195 4787875
9318 501465 4789528
9319 502023 4792065
9320 497186 4797047
9321 498121 4789798
9322 502700 4793893
9323 496949 4797019
9324 500587 4793380
9325 501238 4797133
9326 497590 4794096
9327 502527 4790385
9328 498541 4796986
9329 501457 4796727
9330 502736 4787074
9331 502775 4786156
9332 496181 4792309
9333 504355 4787022
9334 498544 4793996
9335 504311 4790410
9336 501557 4797842
9337 498300 4795309
9338 502543 4789120
9339 500629 4787738
9340 496010 4794325
9341 497840 4795501
9342 496674 4793329
9343 503854 4787148
9344 500116 4796242
9345 504476 4791677
9346 502984 4790801
9347 501691 4787215
9348 502971 4790226
9349 502992 4786962
9350 503766 4790275
9351 500061 4791473
9352 501907 4792782
9353 501409 4788492
9354 499429 4790701
9355 499443 4790591
9356 496281 4796243
9357 502739 4789582
9358 504357 4792831
9359 497646 4787774
9360 496534 4790567
9361 496830 4793736
9362 500646 4794852
9363 500815 4791158
9364 496960 4788677
9365 499188 4788596
9366 503946 4795539
9367 498610 4790630
9368 502056 4791321
9369 503572 4795430
9370 504327 4790687
9371 502772 4797412
9372 504249 4792642
9373 500376 4794153
9374 502535 4790376
9375 502635 4790852
9376 500974 4795405
9377 502450 4788076
9378 498308 4787787
9379 496991 4795232
9380 501514 4791803
9381 500159 4787248
9382 497865 4786802
9383 504362 4797710
9384 500806 4797984
9385 496151 4794981
9386 501589 4793392
9387 501341 4793454
9388 501038 4786281
9389 502130 4792439
9390 497625 4786121
9391 501804 4790160
9392 497954 4790767
9393 498527 4786983
9394 496379 4786542
9395 502828 4797825
9396 504184 4791752
9397 502819 4792183
9398 504065 4794226
9399 501152 4787913
9400 502877 4790627
9401 501209 4786984
9402 497820 4793058
9403 502749 4796125
9404 501499 4793586
9405 497078 4786362
9406 499711 4787872
9407 501264 4789595
9408 502074 4789856
9409 504234 4792022
9410 504129 4796939
9411 503240 4794806
9412 498291 4793016
9413 497217 4791016
9414 501192 4789230
9415 498628 4787246
9416 496895 4796172
9417 502749 4788785
9418 499464 4795253
9419 497701 4787832
9420 496901 4786654
9421 502832 4792036
9422 503677 4794575
9423 502275 4791989
9424 498707 4794954
9425 502007 4794964
9426 496483 4788085
9427 504161 4787512
9428 502440 4790276
9429 499349 4790299
9430 501158 4786326
9431 498746 4793902
9432 502849 4796407
9433 496370 4790899
9434 496237 4788348
9435 503992 4791216
9436 498730 4797613
9437 499115 4796255
9438 498792 4796842
9439 501072 4791985
9440 497717 4792232
9441 497953 4787840
9442 496388 4789301
9443 503254 4796349
9444 503629 4797491
9445 496823 4792359
9446 498179 4791227
9447 502013 4797433
9448 502808 4790147
9449 496790 4794273
9450 498450 4787990
9451 497525 4793302
9452 503220 4794256
9453 497785 4788719
9454 499917 4797705
9455 499233 4793740
9456 497885 4787123
9457 497387 4795259
9458 504467 4789907
9459 500778 4793379
9460 496167 4791490
9461 499524 4791199
9462 500191 4786778
9463 496141 4797039
9464 501094 4794236
9465 498423 4794152
9466 500027 4790026
9467 500625 4790549
9468 503359 4787111
9469 496950 4797761
9470 500854 4796904
9471 504319 4789567
9472 502198 4789230
9473 504095 4796909
9474 501172 4795135
9475 496269 4789389
9476 503069 4789425
9477 501015 4787910
9478 497412 4796820
9479 499175 4793841
9480 501081 4796166
9481 499793 4789541
9482 497086 4793505
9483 496206 4797415
9484 504210 4792196
9485 504062 4787001
9486 497675 4786078
9487 502495 4788707
9488 504181 4791686
9489 496175 4795465
9490 501874 4793445
9491 497797 4788276
9492 503329 4795405
9493 499314 4786152
9494 499463 4786683
9495 497347 4786910
9496 502241 4795107
9497 499525 4788672
9498 497518 4786427
9499 498617 4787219
9500 497939 4790022
9501 498160 4795854
9502 501594 4790478
9503 497299 4796112
9504 496674 4795094
9505 499331 4795896
9506 497109 4788845
9507 497432 4795770
9508 498516 4790241
9509 499499 4788833
9510 504224 4794265
9511 503636 4793017
9512 500879 4787008
9513 499623 4794355
9514 501311 4786934
9515 499315 4792168
9516 501223 4796035
9517 501706 4787261
9518 496858 4792303
9519 500780 4790453
9520 497155 4792635
9521 497263 4790053
9522 502774 4787817
9523 498976 4796787
9524 496072 4795874
9525 497174 4791987
9526 502281 4789976
9527 497101 4792975
9528 503134 4797653
9529 503799 4793084
9530 504038 4789515
9531 499179 4787897
9532 499730 4790056
9533 503402 4786652
9534 501764 4796721
9535 501597 4793778
9536 498431 4786906
9537 501796 4796936
9538 502695 4786649
9539 501261 4791050
9540 498578 4792010
9541 499217 4787537
9542 499051 4793880
9543 499258 4795237
9544 501418 4786575
9545 502518 4793504
9546 499474 4787114
9547 499546 4787621
9548 499055 4795861
9549 498426 4787472
9550 500028 4792872
9551 502084 4789121
9552 504229 4794420
9553 504182 4790512
9554 497112 4796662
9555 502879 4790717
9556 500379 4787734
9557 502526 4793589
9558 501038 4795909
9559 498341 4790376
9560 498702 4796259
9561 503812 4786853
9562 499256 4794547
9563 500735 4795871
9564 496398 4793175
9565 501276 4795435
9566 504174 4795116
9567 498812 4791328
9568 500174 4788085
9569 498824 4787878
9570 497125 4797874
9571 500899 4792817
9572 498282 4791893
9573 502869 4787622
9574 496312 4789368
9575 499813 4790725
9576 503173 4796013
9577 498111 4791143
9578 502169 4793238
9579 502052 4797412
9580 501019 4791544
9581 496295 4793214
9582 503868 4797664
9583 502989 4790786
9584 502938 4796802
9585 497263 4793568
9586 501139 4791824
9587 498469 4793301
9588 497015 4795183
9589 500957 4787922
9590 502461 4797384
9591 499234 4786127
9592 497848 4797614
9593 502035 4796359
9594 501272 4786068
9595 499846 4795280
9596 497590 4788112
9597 501754 4794840
9598 496080 4790587
9599 499580 4793333
9600 497860 4793820
9601 503656 4788312
9602 502361 4787937
9603 499636 4786787
9604 503366 4790307
9605 501169 4792156
9606 504102 4796651
9607 502806 4797752
9608 497906 4796752
9609 501436 4786475
9610 499179 4786283
9611 499218 4787783
9612 498301 4795540
9613 503081 4791808
9614 500865 4797911
9615 498700 4787972
9616 498561 4797798
9617 503990 4790745
9618 501995 4787104
9619 497013 4794595
9620 500012 4788506
9621 496083 4795791
9622 499468 4789844
9623 499126 4792877
9624 502047 4790513
9625 496190 4793641
9626 497512 4787422
9627 496375 4794890
9628 498966 4796391
9629 497739 4789925
9630 499110 4795605
9631 496251 4797610
9632 500984 4790992
9633 498217 4789481
9634 500288 4794161
9635 501604 4797707
9636 503601 4791709
9637 502163 4792221
9638 500998 4786615
9639 496773 4795308
9640 497298 4789414
9641 496681 4797153
9642 502702 4791354
9643 496001 4788380
9644 502786 4795631
9645 501681 4787030
9646 496896 4789537
9647 499633 4796225
9648 503237 4792809
9649 497084 4787847
9650 504340 4795466
9651 499949 4796049
9652 499892 4794549
9653 503601 4789585
9654 504133 4795436
9655 502657 4789957
9656 497589 4793802
9657 498995 4788374
9658 496393 4792153
9659 496661 4792192
9660 497069 4789584
9661 497502 4793267
9662 498307 4787480
9663 503632 4787665
9664 497446 4792564
9665 498927 4797281
9666 499777 4793399
9667 503867 4788249
9668 501292 4789989
9669 499847 4794636
9670 501109 4797572
9671 501497 4797933
9672 502392 4789272
9673 499715 4786597
9674 504481 4786677
9675 502278 4789691
9676 503352 4791433
9677 501302 4794448
9678 498304 4792890
9679 504227 4797640
9680 500540 4791080
9681 501714 4795566
9682 498956 4786946
9683 500414 4795494
9684 503404 4793454
9685 502104 4793754
9686 502889 4786732
9687 498354 4787690
9688 500772 4795926
9689 497864 4797036
9690 503560 4796804
9691 501395 4788368
9692 496934 4797041
9693 496898 4788819
9694 501243 4794138
9695 497133 4794237
9696 501096 4786117
9697 501805 4796889
9698 498573 4789521
9699 502558 4795006
9700 501912 4797325
9701 500037 4790659
9702 496451 4792859
9703 500246 4796394
9704 498365 4797001
9705 502408 4789409
9706 504455 4796952
9707 502293 4795444
9708 501720 4791966
9709 499846 4795054
9710 496901 4788690
9711 503973 4796404
9712 504073 4793696
9713 503524 4794592
9714 499877 4795857
9715 499524 4794742
9716 498601 4795014
9717 503725 4788918
9718 497093 4787542
9719 501735 4791049
9720 500557 4791486
9721 502622 4786902
9722 498739 4796686
9723 498863 4791692
9724 503364 4788395
9725 502244 4793808
9726 502161 4795607
9727 496622 4795832
9728 497777 4790606
9729 504095 4791690
9730 502145 4794826
9731 500583 4786263
9732 496356 4788703
9733 501972 4790119
9734 498792 4796450
9735 496935 4796025
9736 503605 4795381
9737 503444 4796929
9738 498103 4793323
9739 497612 4789397
9740 504109 4786024
9741 497944 4787527
9742 497181 4789324
9743 504050 4791970
9744 496747 4794349
9745 497499 4787139
9746 503129 4793007
9747 499030 4797215
9748 501854 4788044
9749 498050 4789513
9750 499519 4789088
9751 497936 4786492
9752 501507 4795388
9753 496002 4794865
9754 502789 4794285
9755 496089 4794639
9756 500899 4795969
9757 502093 4789389
9758 502019 4787165
9759 502898 4790107
9760 502000 4797297
9761 500785 4790150
9762 501777 4787038
9763 498875 4787615
9764 499658 4796474
9765 498970 4787912
9766 501628 4786634
9767 501582 4797590
9768 498121 4797638
9769 502988 4797880
9770 496906 4795259
9771 496758 4795816
9772 498719 4795273
9773 500225 4792154
9774 503415 4792212
9775 504115 4789245
9776 501080 4790165
9777 502918 4794334
9778 498526 4787480
9779 499817 4788703
9780 499235 4787694
9781 497847 4797704
9782 498056 4794594
9783 496561 4786211
9784 501228 4793445
9785 503429 4786548
9786 497101 4794143
9787 497234 4797604
9788 503763 4789962
9789 498138 4792401
9790 498386 4786474
9791 500171 4795927
9792 499373 4790845
9793 499623 4795689
9794 503136 4796441
9795 497740 4794683
9796 499881 4786190
9797 498897 4789810
9798 498330 4793686
9799 503570 4794989
9800 503220 4790604
9801 499899 4792776
9802 502994 4792983
9803 500246 4793121
9804 503697 4787654
9805 497702 4791038
9806 499973 4793107
9807 501015 4797315
9808 502613 4794015
9809 501944 4791523
9810 497566 4788499
9811 496773 4793128
9812 499602 4789372
9813 499099 4790857
9814 497346 4790246
9815 496755 4793734
9816 500053 4792265
9817 500911 4788986
9818 496677 4790669
9819 499819 4790446
9820 502230 4789850
9821 502084 4792146
9822 501926 4788546
9823 501624 4795624
9824 497639 4789638
9825 503915 4792491
9826 503380 4791385
9827 498918 4787713
9828 504021 4794732
9829 498625 4797940
9830 502755 4790461
9831 503938 4791565
9832 499068 4789687
9833 503179 4790780
9834 497000 4786225
9835 498528 4788009
9836 504253 4795074
9837 502258 4794905
9838 502226 4787503
9839 499832 4790052
9840 501066 4791475
9841 503496 4796741
9842 501658 4792519
9843 497696 4792550
9844 500990 4789126
9845 501747 4792143
9846 502557 4787297
9847 496054 4794495
9848 498433 4790408
9849 499045 4786579
9850 500420 4786171
9851 500836 4797361
9852 498823 4795572
9853 499415 4796690
9854 501146 4786347
9855 504232 4788282
9856 501680 4797226
9857 499734 4791975
9858 500402 4789266
9859 497736 4793442
9860 502082 4791013
9861 504264 4790600
9862 496159 4794530
9863 502666 4790137
9864 502245 4790840
9865 498551 4786674
9866 499048 4797378
9867 503226 4790594
9868 500725 4796297
9869 504441 4797199
9870 503401 4793431
9871 498178 4797902
9872 504442 4792886
9873 504314 4795413
9874 503412 4796012
9875 498379 4797906
9876 500192 4796638
9877 501810 4789531
9878 497251 4789604
9879 503217 4788734
9880 502027 4786528
9881 500241 4797149
9882 499035 4787118
9883 497852 4788302
9884 502827 4788821
9885 502650 4788645
9886 501823 4794105
9887 496121 4793126
9888 500453 4787886
9889 504469 4795579
9890 501848 4793246
9891 504151 4791908
9892 498796 4794940
9893 503983 4794162
9894 501440 4794194
9895 501740 4788647
9896 497992 4797195
9897 503836 4787946
9898 497761 4788572
9899 496557 4792332
9900 501044 4786457
9901 501387 4790858
9902 499500 4790617
9903 499868 4795197
9904 501053 4786381
9905 497993 4786554
9906 499078 4796811
9907 501635 4789296
9908 500916 4796128
9909 499958 4787505
9910 500509 4795001
9911 503730 4788829
9912 496944 4786475
9913 499172 4787313
9914 496733 4787627
9915 498913 4790257
9916 496659 4786119
9917 496147 4789752
9918 498148 4786740
9919 498726 4796748
9920 500983 4786106
9921 503229 4795189
9922 496529 4795061
9923 500919 4789307
9924 502430 4787460
9925 503245 4794700
9926 498536 4792281
9927 502254 4797247
9928 501312 4795356
9929 500243 4790258
9930 500840 4794848
9931 499102 4787170
9932 500033 4792534
9933 499158 4793210
9934 496803 4796666
9935 497131 4793182
9936 499769 4797937
9937 503989 4797325
9938 501393 4795133
9939 502274 4792476
9940 496963 4791184
9941 501435 4790766
9942 501463 4786726
9943 498368 4795110
9944 503881 4791401
9945 500782 4791033
9946 500827 4786488
9947 503869 4792802
9948 497306 4794768
9949 499311 4788219
9950 497720 4786898
9951 504361 4787141
9952 503548 4789002
9953 501768 4794124
9954 502814 4793386
9955 502316 4789342
9956 503696 4797431
9957 502496 4792288
9958 498036 4795115
9959 499604 4788537
9960 496641 4792900
9961 498964 4787993
9962 496868 4793918
9963 503548 4789650
9964 497564 4793432
9965 498660 4794874
9966 497778 4786975
9967 499511 4795442
9968 504265 4790315
9969 501263 4790278
9970 501792 4787164
9971 504287 4796835
9972 501666 4788157
9973 501462 4793669
9974 500392 4788469
9975 498517 4797013
9976 500665 4790819
9977 497352 4786132
9978 497191 4789141
9979 498869 4793414
9980 503531 4791064
9981 496674 4788092
9982 497410 4788535
9983 499087 4786433
9984 503483 4797931
9985 502007 4797861
9986 496621 4789381
9987 496156 4788849
9988 501813 4793211
9989 497693 4794676
9990 499784 4786230
9991 503822 4793517
9992 496477 4788051
9993 496134 4792408
9994 503271 4793418
9995 502566 4794017
9996 502419 4797180
9997 497009 4792893
9998 500583 4790643
9999 503662 4791104
10000 502359 4788483
NODE_TYPE_SECTION
1 2
2 2
3 1
4 2
5 2
6 2
7 1
8 1
9 2
10 2
11 2
12 1
13 1
14 1
15 2
16 2
17 2
18 1
19 2
20 2
21 2
22 2
23 2
24 1
25 1
26 0
27 2
28 2
29 2
30 1
31 2
32 1
33 2
34 1
35 2
36 1
37 2
38 2
39 2
40 2
41 2
42 2
43 1
44 1
45 2
46 2
47 2
48 2
49 1
50 1
51 2
52 1
53 2
54 2
55 2
56 2
57 2
58 1
59 2
60 2
61 0
62 2
63 1
64 2
65 1
66 2
67 2
68 1
69 1
70 2
71 2
72 2
73 2
74 2
75 2
76 1
77 2
78 2
79 2
80 1
81 2
82 1
83 1
84 2
85 2
86 2
87 2
88 2
89 1
90 2
91 2
92 2
93 1
94 2
95 2
96 2
97 1
98 2
99 1
100 2
101 0
102 1
103 2
104 2
105 2
106 1
107 2
108 1
109 2
110 1
111 1
112 1
113 2
114 2
115 1
116 2
117 2
118 1
119 1
120 2
121 2
122 2
123 1
124 1
125 2
126 2
127 2
128 1
129 2
130 2
131 1
132 2
133 2
134 2
135 2
136 2
137 2
138 1
139 2
140 2
141 2
142 2
143 1
144 2
145 2
146 2
147 1
148 1
149 2
150 2
151 2
152 1
153 2
154 2
155 2
156 1
157 2
158 2
159 1
160 2
161 2
162 1
163 2
164 2
165 2
166 1
167 2
168 2
169 2
170 2
171 1
172 2
173 1
174 2
175 1
176 1
177 1
178 1
179 2
180 2
181 1
182 1
183 2
184 2
185 2
186 2
187 1
188 1
189 1
190 2
191 2
192 1
193 2
194 2
195 2
196 1
197 2
198 1
199 1
200 1
201 2
202 1
203 2
204 2
205 2
206 1
207 1
208 1
209 2
210 2
211 2
212 2
213 2
214 1
215 2
216 2
217 2
218 2
219 1
220 2
221 2
222 0
223 2
224 2
225 2
226 2
227 2
228 2
229 1
230 1
231 1
232 2
233 2
234 1
235 2
236 2
237 1
238 2
239 2
240 2
241 1
242 1
243 2
244 2
245 2
246 2
247 2
248 2
249 2
250 2
251 2
252 2
253 2
254 1
255 2
256 1
257 2
258 2
259 1
260 1
261 2
262 2
263 1
264 1
265 1
266 2
267 2
268 2
269 1
270 2
271 2
272 2
273 2
274 2
275 2
276 2
277 2
278 2
279 1
280 2
281 1
282 1
283 2
284 1
285 1
286 2
287 1
288 2
289 2
290 2
291 2
292 2
293 1
294 1
295 1
296 1
297 1
298 1
299 2
300 2
301 2
302 1
303 1
304 1
305 1
306 2
307 2
308 1
309 1
310 2
311 2
312 2
313 2
314 2
315 2
316 2
317 1
318 0
319 2
320 1
321 1
322 2
323 2
324 1
325 2
326 2
327 2
328 1
329 1
330 2
331 1
332 2
333 1
334 1
335 2
336 2
337 2
338 2
339 1
340 1
341 2
342 2
343 1
344 1
345 2
346 1
347 2
348 2
349 2
350 2
351 1
352 2
353 2
354 1
355 2
356 1
357 2
358 2
359 1
360 2
361 1
362 1
363 1
364 2
365 2
366 1
367 2
368 1
369 2
370 1
371 1
372 2
373 1
374 2
375 1
376 1
377 1
378 1
379 2
380 1
381 2
382 2
383 2
384 1
385 2
386 2
387 1
388 2
389 2
390 1
391 1
392 2
393 1
394 2
395 1
396 2
397 2
398 2
399 1
400 1
401 2
402 2
403 1
404 1
405 2
406 2
407 1
408 2
409 1
410 2
411 2
412 2
413 2
414 2
415 1
416 2
417 2
418 2
419 1
420 2
421 2
422 2
423 1
424 2
425 2
426 2
427 2
428 1
429 2
430 1
431 1
432 2
433 2
434 2
435 2
436 2
437 2
438 2
439 2
440 1
441 2
442 1
443 2
444 1
445 2
446 2
447 2
448 2
449 1
450 2
451 2
452 2
453 2
454 2
455 2
456 1
457 2
458 2
459 1
460 2
461 2
462 2
463 2
464 2
465 1
466 2
467 2
468 2
469 1
470 2
471 1
472 2
473 2
474 2
475 2
476 2
477 2
478 2
479 1
480 2
481 2
482 1
483 2
484 2
485 1
486 1
487 1
488 2
489 2
490 2
491 1
492 2
493 0
494 2
495 2
496 2
497 2
498 2
499 2
500 2
501 2
502 1
503 2
504 1
505 1
506 2
507 2
508 1
509 1
510 2
511 2
512 1
513 1
514 1
515 1
516 1
517 2
518 2
519 2
520 1
521 2
522 2
523 2
524 2
525 2
526 0
527 2
528 2
529 2
530 1
531 1
532 2
533 2
534 2
535 2
536 2
537 2
538 2
539 1
540 2
541 1
542 2
543 2
544 2
545 2
546 2
547 2
548 1
549 2
550 2
551 2
552 1
553 1
554 2
555 1
556 2
557 2
558 2
559 2
560 2
561 2
562 1
563 1
564 2
565 2
566 1
567 2
568 2
569 1
570 2
571 1
572 2
573 1
574 2
575 2
576 1
577 2
578 2
579 2
580 2
581 1
582 1
583 1
584 2
585 1
586 2
587 2
588 2
589 2
590 2
591 2
592 1
593 1
594 1
595 2
596 2
597 1
598 2
599 2
600 2
601 1
602 1
603 2
604 1
605 0
606 2
607 2
608 2
609 2
610 2
611 2
612 2
613 2
614 2
615 2
616 2
617 2
618 1
619 2
620 2
621 2
622 1
623 1
624 1
625 2
626 1
627 2
628 2
629 1
630 1
631 1
632 2
633 2
634 2
635 2
636 1
637 1
638 2
639 2
640 1
641 2
642 2
643 2
644 2
645 2
646 2
647 1
648 2
649 2
650 2
651 1
652 1
653 2
654 2
655 2
656 2
657 1
658 2
659 2
660 2
661 1
662 1
663 2
664 2
665 2
666 1
667 1
668 2
669 2
670 1
671 2
672 2
673 1
674 2
675 1
676 2
677 2
678 2
679 2
680 1
681 2
682 1
683 2
684 1
685 1
686 2
687 1
688 2
689 1
690 1
691 1
692 2
693 2
694 2
695 2
696 2
697 1
698 2
699 2
700 1
701 2
702 2
703 2
704 1
705 2
706 1
707 2
708 2
709 1
710 1
711 2
712 1
713 2
714 1
715 1
716 2
717 2
718 2
719 2
720 2
721 1
722 2
723 1
724 1
725 1
726 1
727 2
728 2
729 1
730 1
731 2
732 2
733 2
734 2
735 2
736 2
737 2
738 2
739 1
740 2
741 2
742 2
743 2
744 1
745 2
746 1
747 2
748 1
749 2
750 2
751 1
752 1
753 2
754 2
755 2
756 2
757 2
758 2
759 2
760 2
761 1
762 1
763 1
764 2
765 2
766 1
767 1
768 2
769 2
770 2
771 1
772 2
773 2
774 1
775 2
776 1
777 2
778 1
779 2
780 2
781 1
782 1
783 1
784 2
785 2
786 2
787 1
788 1
789 1
790 1
791 1
792 2
793 2
794 2
795 2
796 1
797 2
798 2
799 2
800 1
801 1
802 2
803 2
804 2
805 2
806 2
807 2
808 2
809 2
810 2
811 1
812 1
813 1
814 2
815 2
816 1
817 2
818 2
819 2
820 2
821 1
822 2
823 1
824 1
825 2
826 2
827 2
828 2
829 2
830 2
831 1
832 2
833 2
834 1
835 1
836 2
837 1
838 2
839 1
840 1
841 1
842 2
843 2
844 2
845 2
846 2
847 1
848 1
849 1
850 2
851 1
852 2
853 2
854 1
855 1
856 0
857 2
858 1
859 0
860 0
861 0
862 2
863 0
864 0
865 0
866 2
867 2
868 0
869 0
870 1
871 0
872 1
873 0
874 0
875 1
876 2
877 0
878 1
879 0
880 2
881 0
882 0
883 0
884 0
885 1
886 0
887 0
888 0
889 0
890 0
891 0
892 0
893 0
894 1
895 2
896 0
897 2
898 2
899 0
900 2
901 2
902 2
903 2
904 2
905 2
906 2
907 2
908 1
909 1
910 1
911 1
912 1
913 2
914 2
915 1
916 1
917 1
918 1
919 2
920 1
921 1
922 2
923 2
924 2
925 1
926 2
927 2
928 2
929 2
930 1
931 2
932 1
933 1
934 2
935 2
936 1
937 1
938 2
939 2
940 1
941 2
942 2
943 1
944 1
945 1
946 1
947 2
948 2
949 1
950 2
951 1
952 2
953 2
954 2
955 2
956 1
957 2
958 1
959 1
960 2
961 1
962 2
963 2
964 2
965 1
966 1
967 1
968 2
969 1
970 1
971 2
972 2
973 2
974 2
975 2
976 2
977 2
978 2
979 2
980 2
981 1
982 1
983 1
984 2
985 2
986 2
987 2
988 1
989 1
990 1
991 1
992 2
993 1
994 1
995 1
996 2
997 2
998 2
999 2
1000 2
1001 2
1002 1
1003 2
1004 1
1005 1
1006 2
1007 1
1008 2
1009 2
1010 1
1011 2
1012 2
1013 2
1014 2
1015 2
1016 1
1017 1
1018 2
1019 2
1020 2
1021 1
1022 1
1023 2
1024 1
1025 2
1026 2
1027 2
1028 2
1029 2
1030 1
1031 2
1032 2
1033 2
1034 2
1035 1
1036 1
1037 1
1038 1
1039 2
1040 2
1041 1
1042 1
1043 2
1044 2
1045 2
1046 2
1047 2
1048 1
1049 1
1050 2
1051 2
1052 2
1053 2
1054 1
1055 2
1056 1
1057 1
1058 2
1059 2
1060 2
1061 1
1062 1
1063 2
1064 1
1065 1
1066 2
1067 2
1068 1
1069 2
1070 2
1071 2
1072 1
1073 2
1074 2
1075 1
1076 1
1077 2
1078 1
1079 1
1080 1
1081 1
1082 2
1083 2
1084 2
1085 2
1086 2
1087 2
1088 1
1089 1
1090 2
1091 1
1092 2
1093 2
1094 1
1095 2
1096 2
1097 1
1098 1
1099 2
1100 2
1101 1
1102 2
1103 1
1104 2
1105 2
1106 2
1107 1
1108 1
1109 2
1110 1
1111 1
1112 2
1113 1
1114 1
1115 2
1116 2
1117 2
1118 2
1119 1
1120 2
1121 2
1122 2
1123 1
1124 1
1125 1
1126 2
1127 2
1128 1
1129 2
1130 2
1131 2
1132 2
1133 1
1134 2
1135 2
1136 1
1137 1
1138 1
1139 2
1140 0
1141 1
1142 2
1143 1
1144 2
1145 2
1146 1
1147 1
1148 2
1149 2
1150 1
1151 2
1152 1
1153 2
1154 1
1155 2
1156 1
1157 2
1158 1
1159 1
1160 1
1161 2
1162 2
1163 2
1164 1
1165 2
1166 2
1167 2
1168 1
1169 1
1170 2
1171 2
1172 1
1173 1
1174 1
1175 2
1176 2
1177 1
1178 2
1179 1
1180 2
1181 2
1182 2
1183 1
1184 2
1185 2
1186 2
1187 1
1188 2
1189 2
1190 2
1191 1
1192 2
1193 2
1194 2
1195 1
1196 1
1197 1
1198 1
1199 2
1200 2
1201 2
1202 1
1203 1
1204 1
1205 2
1206 2
1207 1
1208 2
1209 2
1210 1
1211 2
1212 2
1213 1
1214 1
1215 2
1216 1
1217 2
1218 2
1219 2
1220 2
1221 1
1222 2
1223 1
1224 2
1225 2
1226 1
1227 2
1228 1
1229 1
1230 2
1231 2
1232 2
1233 2
1234 1
1235 2
1236 1
1237 2
1238 2
1239 2
1240 1
1241 1
1242 1
1243 2
1244 1
1245 1
1246 2
1247 2
1248 2
1249 1
1250 2
1251 1
1252 2
1253 2
1254 2
1255 2
1256 2
1257 2
1258 1
1259 1
1260 2
1261 1
1262 2
1263 2
1264 2
1265 2
1266 1
1267 1
1268 1
1269 2
1270 0
1271 1
1272 2
1273 2
1274 2
1275 2
1276 1
1277 2
1278 1
1279 2
1280 2
1281 2
1282 1
1283 1
1284 1
1285 2
1286 2
1287 1
1288 2
1289 1
1290 1
1291 1
1292 2
1293 1
1294 2
1295 1
1296 1
1297 1
1298 1
1299 1
1300 2
1301 2
1302 2
1303 1
1304 2
1305 2
1306 2
1307 1
1308 1
1309 1
1310 2
1311 1
1312 2
1313 2
1314 2
1315 2
1316 2
1317 1
1318 1
1319 2
1320 1
1321 2
1322 1
1323 2
1324 2
1325 2
1326 2
1327 1
1328 2
1329 2
1330 2
1331 1
1332 2
1333 2
1334 1
1335 2
1336 2
1337 2
1338 1
1339 2
1340 2
1341 1
1342 1
1343 1
1344 1
1345 2
1346 2
1347 2
1348 1
1349 2
1350 1
1351 2
1352 2
1353 2
1354 2
1355 0
1356 2
1357 2
1358 2
1359 1
1360 2
1361 2
1362 2
1363 2
1364 2
1365 2
1366 2
1367 2
1368 2
1369 1
1370 2
1371 1
1372 2
1373 1
1374 2
1375 2
1376 2
1377 2
1378 1
1379 1
1380 1
1381 1
1382 2
1383 2
1384 2
1385 1
1386 2
1387 1
1388 1
1389 2
1390 1
1391 2
1392 2
1393 2
1394 2
1395 2
1396 1
1397 2
1398 1
1399 2
1400 2
1401 1
1402 2
1403 2
1404 2
1405 2
1406 1
1407 2
1408 2
1409 2
1410 1
1411 1
1412 2
1413 2
1414 1
1415 2
1416 1
1417 1
1418 2
1419 2
1420 2
1421 1
1422 2
1423 2
1424 1
1425 2
1426 2
1427 2
1428 2
1429 2
1430 1
1431 2
1432 2
1433 2
1434 2
1435 2
1436 2
1437 2
1438 1
1439 2
1440 2
1441 1
1442 1
1443 1
1444 1
1445 1
1446 2
1447 2
1448 1
1449 2
1450 1
1451 2
1452 2
1453 2
1454 1
1455 2
1456 1
1457 1
1458 2
1459 1
1460 2
1461 1
1462 2
1463 2
1464 2
1465 2
1466 1
1467 2
1468 2
1469 2
1470 2
1471 1
1472 2
1473 1
1474 1
1475 2
1476 1
1477 2
1478 2
1479 1
1480 2
1481 2
1482 1
1483 2
1484 2
1485 1
1486 1
1487 1
1488 2
1489 1
1490 2
1491 2
1492 2
1493 2
1494 2
1495 2
1496 1
1497 2
1498 2
1499 2
1500 1
1501 1
1502 1
1503 1
1504 2
1505 1
1506 2
1507 2
1508 1
1509 2
1510 2
1511 2
1512 2
1513 2
1514 1
1515 2
1516 1
1517 2
1518 2
1519 2
1520 1
1521 2
1522 1
1523 2
1524 2
1525 1
1526 2
1527 2
1528 1
1529 2
1530 2
1531 1
1532 1
1533 1
1534 1
1535 2
1536 2
1537 1
1538 1
1539 1
1540 2
1541 1
1542 2
1543 1
1544 1
1545 2
1546 2
1547 2
1548 2
1549 2
1550 1
1551 1
1552 2
1553 2
1554 1
1555 2
1556 1
1557 2
1558 1
1559 2
1560 2
1561 1
1562 2
1563 1
1564 1
1565 2
1566 1
1567 2
1568 2
1569 1
1570 2
1571 2
1572 2
1573 2
1574 2
1575 2
1576 2
1577 1
1578 2
1579 2
1580 2
1581 1
1582 1
1583 1
1584 1
1585 2
1586 2
1587 1
1588 2
1589 1
1590 2
1591 1
1592 2
1593 2
1594 2
1595 2
1596 2
1597 1
1598 2
1599 1
1600 2
1601 2
1602 1
1603 1
1604 2
1605 1
1606 1
1607 1
1608 2
1609 2
1610 1
1611 2
1612 1
1613 1
1614 2
1615 2
1616 2
1617 2
1618 2
1619 2
1620 1
1621 2
1622 1
1623 2
1624 1
1625 1
1626 2
1627 1
1628 1
1629 1
1630 2
1631 2
1632 2
1633 2
1634 2
1635 2
1636 2
1637 2
1638 2
1639 1
1640 2
1641 2
1642 2
1643 1
1644 2
1645 1
1646 1
1647 2
1648 2
1649 2
1650 1
1651 2
1652 2
1653 2
1654 1
1655 2
1656 2
1657 2
1658 2
1659 2
1660 2
1661 2
1662 2
1663 2
1664 2
1665 2
1666 0
1667 1
1668 2
1669 1
1670 2
1671 2
1672 2
1673 2
1674 2
1675 2
1676 1
1677 1
1678 1
1679 2
1680 1
1681 2
1682 2
1683 2
1684 1
1685 2
1686 1
1687 2
1688 2
1689 2
1690 2
1691 1
1692 2
1693 2
1694 2
1695 1
1696 2
1697 2
1698 2
1699 2
1700 2
1701 1
1702 2
1703 1
1704 1
1705 1
1706 2
1707 1
1708 2
1709 1
1710 1
1711 1
1712 1
1713 1
1714 2
1715 0
1716 1
1717 2
1718 2
1719 2
1720 2
1721 1
1722 2
1723 2
1724 2
1725 1
1726 1
1727 1
1728 1
1729 2
1730 2
1731 1
1732 2
1733 2
1734 1
1735 2
1736 2
1737 1
1738 2
1739 2
1740 2
1741 1
1742 1
1743 1
1744 2
1745 1
1746 1
1747 2
1748 2
1749 1
1750 1
1751 1
1752 1
1753 2
1754 1
1755 2
1756 2
1757 2
1758 1
1759 2
1760 2
1761 2
1762 2
1763 2
1764 1
1765 1
1766 2
1767 2
1768 1
1769 2
1770 2
1771 2
1772 1
1773 2
1774 1
1775 2
1776 2
1777 1
1778 1
1779 1
1780 2
1781 2
1782 2
1783 2
1784 2
1785 2
1786 2
1787 1
1788 2
1789 1
1790 2
1791 2
1792 1
1793 1
1794 2
1795 2
1796 2
1797 2
1798 2
1799 2
1800 2
1801 2
1802 1
1803 1
1804 2
1805 2
1806 1
1807 2
1808 2
1809 1
1810 2
1811 1
1812 2
1813 2
1814 2
1815 2
1816 2
1817 2
1818 2
1819 2
1820 2
1821 1
1822 2
1823 2
1824 2
1825 1
1826 1
1827 1
1828 2
1829 1
1830 2
1831 2
1832 2
1833 2
1834 2
1835 2
1836 1
1837 2
1838 1
1839 1
1840 1
1841 2
1842 2
1843 1
1844 1
1845 1
1846 1
1847 2
1848 2
1849 2
1850 2
1851 1
1852 2
1853 1
1854 2
1855 2
1856 2
1857 2
1858 2
1859 1
1860 2
1861 2
1862 1
1863 2
1864 2
1865 2
1866 1
1867 2
1868 2
1869 2
1870 1
1871 2
1872 1
1873 2
1874 1
1875 2
1876 1
1877 2
1878 2
1879 1
1880 2
1881 1
1882 2
1883 2
1884 2
1885 2
1886 1
1887 1
1888 1
1889 2
1890 2
1891 2
1892 2
1893 2
1894 2
1895 2
1896 2
1897 1
1898 1
1899 1
1900 2
1901 2
1902 1
1903 1
1904 2
1905 2
1906 2
1907 1
1908 2
1909 2
1910 2
1911 1
1912 1
1913 2
1914 1
1915 1
1916 1
1917 1
1918 1
1919 1
1920 1
1921 2
1922 1
1923 2
1924 1
1925 2
1926 1
1927 2
1928 2
1929 2
1930 1
1931 1
1932 1
1933 1
1934 1
1935 1
1936 1
1937 2
1938 2
1939 2
1940 2
1941 2
1942 2
1943 2
1944 1
1945 2
1946 2
1947 2
1948 2
1949 1
1950 2
1951 1
1952 2
1953 1
1954 1
1955 1
1956 2
1957 2
1958 2
1959 2
1960 2
1961 1
1962 2
1963 2
1964 2
1965 1
1966 1
1967 2
1968 2
1969 2
1970 2
1971 1
1972 1
1973 1
1974 2
1975 1
1976 2
1977 2
1978 0
1979 2
1980 1
1981 2
1982 1
1983 1
1984 2
1985 2
1986 2
1987 2
1988 2
1989 1
1990 2
1991 1
1992 2
1993 2
1994 1
1995 1
1996 2
1997 2
1998 2
1999 2
2000 2
2001 1
2002 2
2003 1
2004 2
2005 2
2006 1
2007 2
2008 2
2009 2
2010 2
2011 1
2012 1
2013 2
2014 2
2015 1
2016 2
2017 2
2018 2
2019 1
2020 2
2021 2
2022 2
2023 2
2024 2
2025 1
2026 2
2027 2
2028 1
2029 1
2030 2
2031 1
2032 2
2033 2
2034 2
2035 2
2036 2
2037 1
2038 2
2039 2
2040 2
2041 2
2042 1
2043 2
2044 2
2045 2
2046 1
2047 1
2048 2
2049 1
2050 2
2051 2
2052 2
2053 2
2054 2
2055 0
2056 2
2057 2
2058 2
2059 1
2060 1
2061 2
2062 1
2063 1
2064 2
2065 1
2066 2
2067 1
2068 2
2069 1
2070 2
2071 1
2072 2
2073 2
2074 2
2075 2
2076 2
2077 2
2078 2
2079 1
2080 2
2081 2
2082 1
2083 1
2084 2
2085 2
2086 1
2087 2
2088 2
2089 1
2090 2
2091 1
2092 2
2093 2
2094 1
2095 2
2096 1
2097 2
2098 2
2099 2
2100 1
2101 1
2102 2
2103 1
2104 1
2105 2
2106 1
2107 1
2108 1
2109 1
2110 1
2111 2
2112 2
2113 2
2114 2
2115 2
2116 2
2117 2
2118 1
2119 2
2120 2
2121 2
2122 2
2123 0
2124 1
2125 1
2126 2
2127 2
2128 1
2129 2
2130 1
2131 1
2132 2
2133 1
2134 2
2135 2
2136 2
2137 2
2138 2
2139 1
2140 2
2141 2
2142 2
2143 1
2144 2
2145 2
2146 2
2147 2
2148 2
2149 2
2150 1
2151 1
2152 2
2153 2
2154 1
2155 1
2156 2
2157 1
2158 2
2159 2
2160 1
2161 1
2162 2
2163 1
2164 1
2165 2
2166 2
2167 1
2168 2
2169 1
2170 1
2171 2
2172 1
2173 2
2174 2
2175 2
2176 2
2177 2
2178 1
2179 1
2180 1
2181 2
2182 1
2183 1
2184 2
2185 1
2186 1
2187 1
2188 2
2189 2
2190 1
2191 2
2192 2
2193 2
2194 1
2195 1
2196 1
2197 2
2198 1
2199 1
2200 2
2201 1
2202 2
2203 2
2204 1
2205 1
2206 1
2207 2
2208 1
2209 1
2210 2
2211 2
2212 2
2213 2
2214 2
2215 2
2216 2
2217 2
2218 2
2219 1
2220 1
2221 2
2222 2
2223 2
2224 2
2225 2
2226 2
2227 1
2228 2
2229 1
2230 2
2231 1
2232 1
2233 2
2234 1
2235 2
2236 2
2237 1
2238 1
2239 2
2240 2
2241 1
2242 2
2243 2
2244 2
2245 2
2246 2
2247 2
2248 2
2249 1
2250 1
2251 1
2252 2
2253 2
2254 2
2255 2
2256 1
2257 2
2258 2
2259 2
2260 2
2261 2
2262 1
2263 2
2264 1
2265 2
2266 1
2267 1
2268 2
2269 1
2270 2
2271 1
2272 2
2273 1
2274 2
2275 2
2276 2
2277 1
2278 1
2279 2
2280 1
2281 1
2282 2
2283 2
2284 1
2285 1
2286 1
2287 2
2288 2
2289 2
2290 2
2291 1
2292 1
2293 1
2294 2
2295 2
2296 2
2297 1
2298 2
2299 2
2300 2
2301 1
2302 1
2303 2
2304 2
2305 1
2306 2
2307 1
2308 2
2309 1
2310 2
2311 2
2312 2
2313 1
2314 2
2315 2
2316 1
2317 2
2318 2
2319 2
2320 1
2321 1
2322 1
2323 2
2324 1
2325 2
2326 1
2327 2
2328 2
2329 1
2330 1
2331 1
2332 1
2333 2
2334 2
2335 2
2336 2
2337 1
2338 2
2339 1
2340 2
2341 1
2342 1
2343 1
2344 2
2345 2
2346 1
2347 2
2348 2
2349 1
2350 1
2351 2
2352 2
2353 1
2354 2
2355 2
2356 2
2357 2
2358 1
2359 2
2360 1
2361 1
2362 1
2363 1
2364 1
2365 2
2366 2
2367 2
2368 1
2369 1
2370 1
2371 1
2372 2
2373 1
2374 1
2375 1
2376 1
2377 1
2378 1
2379 1
2380 2
2381 1
2382 2
2383 2
2384 1
2385 2
2386 1
2387 2
2388 1
2389 1
2390 1
2391 1
2392 2
2393 1
2394 1
2395 2
2396 2
2397 2
2398 2
2399 2
2400 1
2401 2
2402 1
2403 1
2404 2
2405 1
2406 2
2407 1
2408 1
2409 1
2410 1
2411 2
2412 2
2413 2
2414 1
2415 2
2416 2
2417 2
2418 2
2419 2
2420 2
2421 1
2422 1
2423 1
2424 1
2425 2
2426 1
2427 1
2428 2
2429 2
2430 2
2431 1
2432 1
2433 2
2434 2
2435 2
2436 2
2437 2
2438 1
2439 2
2440 2
2441 1
2442 2
2443 2
2444 2
2445 1
2446 1
2447 1
2448 0
2449 1
2450 2
2451 1
2452 1
2453 1
2454 2
2455 2
2456 2
2457 2
2458 2
2459 2
2460 2
2461 2
2462 2
2463 2
2464 1
2465 1
2466 2
2467 2
2468 2
2469 2
2470 2
2471 2
2472 1
2473 2
2474 2
2475 1
2476 2
2477 1
2478 2
2479 1
2480 1
2481 1
2482 2
2483 2
2484 2
2485 1
2486 2
2487 1
2488 1
2489 1
2490 2
2491 2
2492 2
2493 1
2494 1
2495 1
2496 1
2497 2
2498 2
2499 2
2500 1
2501 2
2502 2
2503 2
2504 2
2505 2
2506 2
2507 1
2508 1
2509 2
2510 2
2511 2
2512 1
2513 2
2514 2
2515 2
2516 2
2517 2
2518 2
2519 2
2520 2
2521 2
2522 2
2523 2
2524 2
2525 1
2526 2
2527 1
2528 2
2529 2
2530 1
2531 2
2532 2
2533 2
2534 2
2535 1
2536 2
2537 2
2538 2
2539 2
2540 2
2541 1
2542 1
2543 2
2544 1
2545 2
2546 1
2547 1
2548 1
2549 1
2550 1
2551 2
2552 2
2553 1
2554 1
2555 2
2556 1
2557 1
2558 2
2559 2
2560 2
2561 2
2562 2
2563 2
2564 2
2565 2
2566 2
2567 2
2568 1
2569 1
2570 2
2571 2
2572 1
2573 1
2574 1
2575 2
2576 1
2577 2
2578 1
2579 1
2580 2
2581 2
2582 2
2583 1
2584 1
2585 1
2586 1
2587 2
2588 2
2589 2
2590 2
2591 1
2592 2
2593 2
2594 1
2595 1
2596 2
2597 1
2598 2
2599 1
2600 2
2601 1
2602 1
2603 2
2604 1
2605 2
2606 2
2607 2
2608 2
2609 2
2610 2
2611 1
2612 1
2613 1
2614 2
2615 1
2616 2
2617 2
2618 1
2619 2
2620 2
2621 1
2622 2
2623 1
2624 2
2625 1
2626 2
2627 1
2628 2
2629 1
2630 2
2631 2
2632 1
2633 1
2634 2
2635 1
2636 1
2637 2
2638 0
2639 2
2640 1
2641 2
2642 2
2643 1
2644 2
2645 2
2646 1
2647 1
2648 2
2649 2
2650 2
2651 1
2652 1
2653 1
2654 1
2655 1
2656 1
2657 1
2658 2
2659 1
2660 1
2661 2
2662 1
2663 1
2664 2
2665 1
2666 1
2667 1
2668 1
2669 1
2670 1
2671 2
2672 1
2673 2
2674 1
2675 1
2676 2
2677 2
2678 2
2679 2
2680 2
2681 1
2682 2
2683 1
2684 2
2685 1
2686 1
2687 2
2688 2
2689 2
2690 2
2691 2
2692 2
2693 2
2694 1
2695 1
2696 2
2697 2
2698 1
2699 2
2700 1
2701 1
2702 2
2703 1
2704 0
2705 2
2706 1
2707 1
2708 2
2709 2
2710 1
2711 2
2712 1
2713 1
2714 2
2715 1
2716 2
2717 2
2718 1
2719 2
2720 2
2721 1
2722 2
2723 1
2724 1
2725 2
2726 1
2727 2
2728 2
2729 2
2730 1
2731 1
2732 1
2733 1
2734 2
2735 1
2736 2
2737 2
2738 2
2739 2
2740 1
2741 1
2742 1
2743 1
2744 1
2745 1
2746 2
2747 2
2748 2
2749 2
2750 2
2751 2
2752 2
2753 2
2754 2
2755 1
2756 1
2757 2
2758 2
2759 2
2760 2
2761 2
2762 1
2763 2
2764 1
2765 1
2766 1
2767 1
2768 2
2769 2
2770 1
2771 1
2772 2
2773 2
2774 0
2775 1
2776 2
2777 1
2778 2
2779 2
2780 1
2781 2
2782 1
2783 1
2784 2
2785 2
2786 1
2787 1
2788 2
2789 1
2790 1
2791 2
2792 1
2793 2
2794 1
2795 2
2796 1
2797 1
2798 1
2799 1
2800 2
2801 2
2802 1
2803 2
2804 1
2805 2
2806 1
2807 1
2808 1
2809 2
2810 1
2811 2
2812 2
2813 2
2814 2
2815 2
2816 2
2817 2
2818 1
2819 1
2820 2
2821 2
2822 2
2823 1
2824 1
2825 2
2826 1
2827 2
2828 1
2829 1
2830 2
2831 2
2832 2
2833 1
2834 2
2835 2
2836 2
2837 2
2838 1
2839 1
2840 1
2841 2
2842 2
2843 1
2844 2
2845 1
2846 2
2847 1
2848 2
2849 2
2850 1
2851 2
2852 2
2853 1
2854 1
2855 1
2856 1
2857 1
2858 1
2859 1
2860 1
2861 2
2862 2
2863 1
2864 1
2865 2
2866 0
2867 1
2868 1
2869 1
2870 1
2871 2
2872 2
2873 1
2874 2
2875 1
2876 2
2877 1
2878 2
2879 2
2880 2
2881 2
2882 2
2883 2
2884 1
2885 1
2886 2
2887 2
2888 1
2889 1
2890 2
2891 1
2892 1
2893 1
2894 2
2895 2
2896 2
2897 2
2898 2
2899 1
2900 2
2901 2
2902 1
2903 1
2904 1
2905 2
2906 2
2907 2
2908 2
2909 2
2910 2
2911 2
2912 1
2913 2
2914 2
2915 2
2916 2
2917 1
2918 2
2919 2
2920 1
2921 1
2922 1
2923 2
2924 1
2925 1
2926 2
2927 2
2928 2
2929 1
2930 2
2931 2
2932 2
2933 2
2934 1
2935 2
2936 1
2937 2
2938 1
2939 1
2940 2
2941 2
2942 1
2943 2
2944 1
2945 1
2946 2
2947 2
2948 2
2949 2
2950 2
2951 2
2952 2
2953 2
2954 1
2955 2
2956 1
2957 1
2958 2
2959 2
2960 1
2961 1
2962 2
2963 2
2964 1
2965 2
2966 1
2967 1
2968 1
2969 1
2970 2
2971 2
2972 2
2973 2
2974 1
2975 2
2976 1
2977 1
2978 2
2979 2
2980 2
2981 2
2982 1
2983 2
2984 2
2985 2
2986 1
2987 1
2988 2
2989 2
2990 2
2991 2
2992 2
2993 1
2994 1
2995 1
2996 1
2997 1
2998 2
2999 2
3000 1
3001 2
3002 1
3003 2
3004 2
3005 2
3006 2
3007 1
3008 1
3009 2
3010 1
3011 1
3012 1
3013 2
3014 1
3015 2
3016 2
3017 1
3018 1
3019 1
3020 2
3021 2
3022 1
3023 1
3024 2
3025 2
3026 2
3027 2
3028 2
3029 2
3030 1
3031 2
3032 1
3033 1
3034 2
3035 2
3036 1
3037 2
3038 2
3039 1
3040 2
3041 1
3042 2
3043 1
3044 2
3045 2
3046 1
3047 2
3048 1
3049 1
3050 2
3051 1
3052 2
3053 2
3054 2
3055 1
3056 1
3057 1
3058 1
3059 2
3060 2
3061 1
3062 2
3063 2
3064 2
3065 2
3066 1
3067 1
3068 2
3069 2
3070 2
3071 2
3072 1
3073 2
3074 2
3075 2
3076 1
3077 2
3078 2
3079 1
3080 2
3081 2
3082 2
3083 2
3084 2
3085 1
3086 2
3087 2
3088 2
3089 2
3090 2
3091 0
3092 2
3093 2
3094 1
3095 1
3096 1
3097 2
3098 1
3099 1
3100 2
3101 2
3102 2
3103 2
3104 1
3105 1
3106 2
3107 2
3108 1
3109 1
3110 2
3111 1
3112 1
3113 2
3114 2
3115 2
3116 1
3117 1
3118 2
3119 2
3120 2
3121 1
3122 1
3123 2
3124 2
3125 2
3126 1
3127 2
3128 1
3129 1
3130 2
3131 1
3132 1
3133 1
3134 2
3135 2
3136 2
3137 2
3138 2
3139 1
3140 2
3141 1
3142 1
3143 2
3144 2
3145 2
3146 2
3147 1
3148 1
3149 1
3150 2
3151 2
3152 2
3153 2
3154 2
3155 2
3156 1
3157 2
3158 2
3159 1
3160 1
3161 2
3162 1
3163 2
3164 2
3165 0
3166 1
3167 1
3168 2
3169 2
3170 1
3171 1
3172 2
3173 2
3174 1
3175 2
3176 1
3177 2
3178 2
3179 2
3180 1
3181 2
3182 1
3183 1
3184 1
3185 2
3186 1
3187 2
3188 2
3189 1
3190 2
3191 2
3192 1
3193 1
3194 1
3195 1
3196 1
3197 2
3198 2
3199 2
3200 2
3201 2
3202 2
3203 2
3204 1
3205 2
3206 2
3207 1
3208 2
3209 2
3210 2
3211 1
3212 2
3213 1
3214 2
3215 1
3216 2
3217 2
3218 2
3219 2
3220 2
3221 2
3222 0
3223 2
3224 1
3225 2
3226 1
3227 1
3228 2
3229 2
3230 2
3231 2
3232 1
3233 2
3234 2
3235 1
3236 1
3237 2
3238 1
3239 2
3240 1
3241 2
3242 1
3243 2
3244 1
3245 1
3246 1
3247 1
3248 2
3249 1
3250 1
3251 2
3252 1
3253 2
3254 2
3255 1
3256 2
3257 2
3258 1
3259 1
3260 1
3261 1
3262 2
3263 2
3264 2
3265 2
3266 1
3267 1
3268 1
3269 1
3270 2
3271 2
3272 1
3273 1
3274 1
3275 2
3276 2
3277 2
3278 2
3279 1
3280 2
3281 1
3282 2
3283 2
3284 1
3285 2
3286 2
3287 1
3288 2
3289 2
3290 2
3291 1
3292 2
3293 1
3294 1
3295 1
3296 1
3297 2
3298 1
3299 2
3300 0
3301 2
3302 2
3303 2
3304 2
3305 1
3306 2
3307 2
3308 1
3309 1
3310 1
3311 2
3312 1
3313 1
3314 2
3315 1
3316 1
3317 1
3318 1
3319 1
3320 1
3321 1
3322 2
3323 1
3324 1
3325 2
3326 2
3327 2
3328 2
3329 1
3330 2
3331 1
3332 2
3333 2
3334 2
3335 2
3336 1
3337 2
3338 1
3339 1
3340 1
3341 1
3342 1
3343 2
3344 2
3345 2
3346 1
3347 2
3348 1
3349 1
3350 2
3351 1
3352 1
3353 1
3354 1
3355 1
3356 2
3357 2
3358 1
3359 2
3360 1
3361 2
3362 2
3363 2
3364 2
3365 2
3366 2
3367 2
3368 2
3369 2
3370 2
3371 2
3372 1
3373 1
3374 2
3375 2
3376 1
3377 1
3378 1
3379 1
3380 2
3381 2
3382 2
3383 2
3384 1
3385 2
3386 1
3387 2
3388 2
3389 2
3390 2
3391 2
3392 2
3393 1
3394 2
3395 2
3396 1
3397 2
3398 2
3399 1
3400 1
3401 2
3402 2
3403 2
3404 2
3405 2
3406 2
3407 1
3408 2
3409 2
3410 2
3411 2
3412 2
3413 2
3414 1
3415 2
3416 2
3417 2
3418 0
3419 1
3420 1
3421 2
3422 2
3423 2
3424 2
3425 1
3426 2
3427 1
3428 1
3429 2
3430 2
3431 2
3432 2
3433 1
3434 1
3435 2
3436 1
3437 1
3438 2
3439 2
3440 2
3441 2
3442 2
3443 2
3444 1
3445 2
3446 2
3447 1
3448 2
3449 2
3450 2
3451 1
3452 1
3453 1
3454 1
3455 2
3456 1
3457 2
3458 1
3459 2
3460 1
3461 2
3462 1
3463 1
3464 1
3465 2
3466 2
3467 2
3468 2
3469 2
3470 2
3471 2
3472 2
3473 2
3474 2
3475 1
3476 1
3477 2
3478 2
3479 2
3480 2
3481 2
3482 1
3483 1
3484 1
3485 1
3486 2
3487 1
3488 2
3489 2
3490 1
3491 1
3492 1
3493 2
3494 2
3495 2
3496 1
3497 1
3498 1
3499 2
3500 1
3501 2
3502 1
3503 1
3504 1
3505 1
3506 1
3507 2
3508 2
3509 2
3510 2
3511 2
3512 2
3513 2
3514 2
3515 2
3516 2
3517 2
3518 2
3519 1
3520 2
3521 1
3522 2
3523 2
3524 2
3525 1
3526 2
3527 1
3528 1
3529 1
3530 1
3531 1
3532 1
3533 1
3534 1
3535 2
3536 1
3537 2
3538 2
3539 2
3540 2
3541 2
3542 2
3543 2
3544 2
3545 2
3546 1
3547 1
3548 1
3549 2
3550 1
3551 1
3552 2
3553 1
3554 1
3555 2
3556 1
3557 2
3558 2
3559 1
3560 1
3561 2
3562 2
3563 2
3564 1
3565 1
3566 2
3567 1
3568 1
3569 2
3570 2
3571 1
3572 1
3573 2
3574 2
3575 2
3576 1
3577 1
3578 2
3579 1
3580 0
3581 2
3582 2
3583 2
3584 1
3585 1
3586 2
3587 2
3588 2
3589 2
3590 1
3591 1
3592 2
3593 2
3594 2
3595 2
3596 2
3597 2
3598 1
3599 2
3600 2
3601 1
3602 1
3603 2
3604 1
3605 1
3606 2
3607 2
3608 2
3609 1
3610 2
3611 2
3612 2
3613 2
3614 2
3615 1
3616 1
3617 1
3618 2
3619 2
3620 1
3621 1
3622 2
3623 1
3624 1
3625 2
3626 1
3627 1
3628 2
3629 2
3630 2
3631 2
3632 1
3633 2
3634 1
3635 1
3636 2
3637 1
3638 1
3639 1
3640 0
3641 1
3642 1
3643 2
3644 2
3645 1
3646 2
3647 2
3648 2
3649 2
3650 2
3651 2
3652 2
3653 1
3654 1
3655 2
3656 2
3657 2
3658 2
3659 1
3660 1
3661 1
3662 2
3663 1
3664 0
3665 1
3666 2
3667 2
3668 1
3669 2
3670 1
3671 2
3672 2
3673 2
3674 2
3675 1
3676 1
3677 2
3678 2
3679 1
3680 1
3681 1
3682 2
3683 2
3684 2
3685 1
3686 1
3687 1
3688 2
3689 1
3690 1
3691 2
3692 1
3693 1
3694 1
3695 2
3696 1
3697 2
3698 2
3699 2
3700 1
3701 1
3702 2
3703 2
3704 2
3705 2
3706 1
3707 2
3708 2
3709 1
3710 1
3711 2
3712 1
3713 1
3714 2
3715 1
3716 2
3717 2
3718 2
3719 1
3720 1
3721 2
3722 2
3723 1
3724 1
3725 2
3726 1
3727 1
3728 1
3729 1
3730 2
3731 2
3732 1
3733 1
3734 2
3735 2
3736 2
3737 1
3738 2
3739 1
3740 1
3741 2
3742 2
3743 1
3744 1
3745 2
3746 1
3747 2
3748 1
3749 2
3750 2
3751 2
3752 2
3753 2
3754 2
3755 2
3756 2
3757 2
3758 1
3759 2
3760 1
3761 1
3762 2
3763 2
3764 2
3765 2
3766 2
3767 2
3768 1
3769 2
3770 2
3771 2
3772 1
3773 1
3774 1
3775 2
3776 1
3777 2
3778 2
3779 2
3780 1
3781 2
3782 1
3783 2
3784 1
3785 2
3786 2
3787 2
3788 2
3789 1
3790 1
3791 2
3792 2
3793 1
3794 2
3795 1
3796 2
3797 2
3798 1
3799 1
3800 1
3801 2
3802 2
3803 1
3804 2
3805 1
3806 2
3807 1
3808 1
3809 2
3810 2
3811 2
3812 2
3813 1
3814 2
3815 2
3816 2
3817 1
3818 2
3819 1
3820 1
3821 2
3822 1
3823 2
3824 2
3825 1
3826 1
3827 2
3828 1
3829 2
3830 1
3831 1
3832 1
3833 1
3834 2
3835 1
3836 2
3837 1
3838 2
3839 2
3840 1
3841 1
3842 1
3843 2
3844 1
3845 2
3846 1
3847 1
3848 1
3849 2
3850 2
3851 1
3852 1
3853 2
3854 1
3855 1
3856 2
3857 2
3858 1
3859 1
3860 1
3861 1
3862 2
3863 1
3864 1
3865 1
3866 2
3867 1
3868 0
3869 1
3870 2
3871 2
3872 2
3873 2
3874 2
3875 2
3876 2
3877 1
3878 1
3879 1
3880 1
3881 2
3882 1
3883 2
3884 2
3885 1
3886 2
3887 1
3888 1
3889 1
3890 2
3891 2
3892 2
3893 2
3894 1
3895 2
3896 1
3897 2
3898 2
3899 1
3900 1
3901 2
3902 2
3903 2
3904 2
3905 2
3906 2
3907 2
3908 2
3909 2
3910 2
3911 1
3912 2
3913 1
3914 2
3915 2
3916 2
3917 2
3918 1
3919 2
3920 2
3921 1
3922 1
3923 2
3924 2
3925 1
3926 2
3927 2
3928 2
3929 1
3930 1
3931 1
3932 2
3933 2
3934 1
3935 1
3936 2
3937 1
3938 1
3939 2
3940 2
3941 2
3942 2
3943 1
3944 1
3945 2
3946 1
3947 1
3948 2
3949 2
3950 1
3951 2
3952 1
3953 2
3954 1
3955 2
3956 1
3957 2
3958 2
3959 1
3960 1
3961 2
3962 2
3963 2
3964 2
3965 2
3966 2
3967 2
3968 1
3969 2
3970 1
3971 2
3972 1
3973 2
3974 2
3975 2
3976 1
3977 1
3978 1
3979 1
3980 2
3981 2
3982 2
3983 1
3984 1
3985 2
3986 2
3987 2
3988 2
3989 2
3990 1
3991 1
3992 1
3993 2
3994 1
3995 2
3996 1
3997 2
3998 2
3999 2
4000 1
4001 1
4002 2
4003 1
4004 2
4005 1
4006 2
4007 2
4008 1
4009 1
4010 2
4011 2
4012 1
4013 1
4014 2
4015 2
4016 2
4017 1
4018 2
4019 0
4020 2
4021 1
4022 2
4023 2
4024 1
4025 2
4026 2
4027 2
4028 1
4029 2
4030 2
4031 1
4032 2
4033 2
4034 2
4035 2
4036 1
4037 2
4038 1
4039 2
4040 2
4041 2
4042 2
4043 2
4044 2
4045 1
4046 1
4047 1
4048 2
4049 2
4050 2
4051 2
4052 1
4053 2
4054 2
4055 2
4056 2
4057 1
4058 2
4059 1
4060 2
4061 2
4062 1
4063 1
4064 2
4065 1
4066 2
4067 1
4068 1
4069 2
4070 2
4071 1
4072 2
4073 1
4074 2
4075 2
4076 1
4077 2
4078 2
4079 2
4080 1
4081 2
4082 2
4083 1
4084 2
4085 2
4086 1
4087 2
4088 1
4089 2
4090 2
4091 2
4092 1
4093 1
4094 2
4095 2
4096 1
4097 1
4098 2
4099 1
4100 2
4101 0
4102 1
4103 2
4104 2
4105 2
4106 2
4107 2
4108 2
4109 2
4110 2
4111 2
4112 2
4113 2
4114 2
4115 1
4116 2
4117 1
4118 2
4119 2
4120 2
4121 2
4122 2
4123 2
4124 2
4125 1
4126 1
4127 2
4128 2
4129 2
4130 2
4131 2
4132 1
4133 2
4134 1
4135 1
4136 2
4137 2
4138 2
4139 1
4140 2
4141 2
4142 2
4143 1
4144 2
4145 1
4146 2
4147 1
4148 2
4149 1
4150 1
4151 2
4152 2
4153 2
4154 1
4155 1
4156 1
4157 2
4158 2
4159 2
4160 2
4161 2
4162 1
4163 2
4164 2
4165 2
4166 2
4167 2
4168 1
4169 2
4170 1
4171 1
4172 2
4173 2
4174 2
4175 2
4176 1
4177 2
4178 2
4179 2
4180 1
4181 1
4182 1
4183 1
4184 2
4185 1
4186 2
4187 1
4188 2
4189 1
4190 2
4191 2
4192 2
4193 1
4194 2
4195 2
4196 1
4197 2
4198 2
4199 2
4200 2
4201 2
4202 2
4203 1
4204 1
4205 2
4206 1
4207 2
4208 2
4209 2
4210 2
4211 2
4212 2
4213 2
4214 2
4215 2
4216 2
4217 2
4218 1
4219 2
4220 1
4221 1
4222 2
4223 2
4224 1
4225 2
4226 1
4227 2
4228 1
4229 2
4230 1
4231 1
4232 2
4233 2
4234 2
4235 2
4236 1
4237 1
4238 1
4239 1
4240 2
4241 2
4242 2
4243 2
4244 2
4245 2
4246 2
4247 1
4248 1
4249 2
4250 2
4251 0
4252 2
4253 2
4254 2
4255 2
4256 1
4257 2
4258 1
4259 2
4260 2
4261 1
4262 2
4263 1
4264 2
4265 1
4266 2
4267 2
4268 2
4269 2
4270 2
4271 1
4272 2
4273 2
4274 2
4275 2
4276 2
4277 2
4278 1
4279 2
4280 2
4281 2
4282 1
4283 1
4284 2
4285 1
4286 1
4287 2
4288 2
4289 1
4290 1
4291 2
4292 2
4293 2
4294 2
4295 2
4296 2
4297 2
4298 2
4299 2
4300 2
4301 2
4302 2
4303 2
4304 2
4305 2
4306 2
4307 1
4308 1
4309 1
4310 2
4311 2
4312 2
4313 2
4314 1
4315 2
4316 2
4317 2
4318 2
4319 2
4320 1
4321 1
4322 1
4323 2
4324 2
4325 2
4326 1
4327 2
4328 2
4329 2
4330 1
4331 2
4332 2
4333 2
4334 2
4335 2
4336 2
4337 1
4338 1
4339 2
4340 2
4341 2
4342 1
4343 2
4344 2
4345 1
4346 2
4347 2
4348 2
4349 2
4350 1
4351 2
4352 2
4353 2
4354 1
4355 2
4356 2
4357 2
4358 1
4359 1
4360 1
4361 1
4362 2
4363 2
4364 2
4365 2
4366 1
4367 2
4368 2
4369 1
4370 1
4371 2
4372 1
4373 1
4374 2
4375 1
4376 2
4377 1
4378 1
4379 2
4380 2
4381 2
4382 2
4383 2
4384 2
4385 1
4386 1
4387 1
4388 1
4389 1
4390 2
4391 2
4392 2
4393 2
4394 1
4395 2
4396 2
4397 1
4398 1
4399 2
4400 2
4401 2
4402 2
4403 1
4404 2
4405 2
4406 2
4407 2
4408 1
4409 1
4410 1
4411 2
4412 2
4413 2
4414 1
4415 1
4416 2
4417 2
4418 2
4419 1
4420 2
4421 1
4422 2
4423 2
4424 1
4425 1
4426 1
4427 2
4428 2
4429 1
4430 2
4431 2
4432 2
4433 2
4434 1
4435 1
4436 2
4437 1
4438 2
4439 2
4440 2
4441 1
4442 1
4443 2
4444 1
4445 2
4446 2
4447 2
4448 2
4449 1
4450 1
4451 2
4452 2
4453 2
4454 2
4455 2
4456 1
4457 1
4458 2
4459 1
4460 2
4461 2
4462 2
4463 2
4464 2
4465 1
4466 1
4467 2
4468 2
4469 1
4470 1
4471 2
4472 2
4473 2
4474 2
4475 1
4476 1
4477 2
4478 1
4479 2
4480 2
4481 1
4482 2
4483 1
4484 1
4485 2
4486 2
4487 1
4488 2
4489 2
4490 1
4491 2
4492 1
4493 2
4494 1
4495 1
4496 2
4497 2
4498 2
4499 1
4500 2
4501 2
4502 1
4503 1
4504 2
4505 2
4506 1
4507 2
4508 1
4509 2
4510 1
4511 1
4512 1
4513 2
4514 2
4515 1
4516 2
4517 2
4518 0
4519 1
4520 2
4521 1
4522 2
4523 2
4524 2
4525 1
4526 1
4527 2
4528 2
4529 2
4530 1
4531 2
4532 1
4533 1
4534 2
4535 2
4536 2
4537 1
4538 1
4539 2
4540 2
4541 2
4542 1
4543 1
4544 2
4545 2
4546 2
4547 2
4548 1
4549 2
4550 2
4551 1
4552 2
4553 1
4554 2
4555 2
4556 1
4557 1
4558 1
4559 2
4560 2
4561 1
4562 2
4563 2
4564 2
4565 1
4566 1
4567 1
4568 2
4569 1
4570 2
4571 2
4572 2
4573 2
4574 1
4575 2
4576 1
4577 2
4578 2
4579 1
4580 2
4581 1
4582 1
4583 1
4584 2
4585 2
4586 2
4587 2
4588 2
4589 1
4590 2
4591 1
4592 1
4593 1
4594 1
4595 2
4596 1
4597 2
4598 1
4599 1
4600 2
4601 1
4602 1
4603 2
4604 1
4605 2
4606 1
4607 2
4608 1
4609 2
4610 1
4611 2
4612 2
4613 2
4614 2
4615 1
4616 1
4617 1
4618 1
4619 2
4620 2
4621 1
4622 2
4623 1
4624 1
4625 2
4626 2
4627 2
4628 2
4629 2
4630 2
4631 1
4632 2
4633 1
4634 2
4635 2
4636 2
4637 2
4638 2
4639 2
4640 2
4641 2
4642 1
4643 1
4644 2
4645 2
4646 1
4647 2
4648 2
4649 1
4650 2
4651 2
4652 2
4653 1
4654 1
4655 2
4656 2
4657 1
4658 1
4659 2
4660 1
4661 1
4662 2
4663 2
4664 2
4665 1
4666 1
4667 1
4668 2
4669 1
4670 1
4671 1
4672 2
4673 2
4674 1
4675 2
4676 2
4677 1
4678 1
4679 1
4680 2
4681 2
4682 2
4683 1
4684 2
4685 1
4686 1
4687 2
4688 2
4689 0
4690 2
4691 2
4692 2
4693 2
4694 2
4695 2
4696 2
4697 1
4698 1
4699 2
4700 1
4701 2
4702 2
4703 1
4704 2
4705 2
4706 2
4707 1
4708 1
4709 2
4710 1
4711 1
4712 1
4713 1
4714 2
4715 2
4716 1
4717 1
4718 2
4719 2
4720 2
4721 2
4722 2
4723 2
4724 1
4725 2
4726 2
4727 2
4728 2
4729 2
4730 1
4731 1
4732 2
4733 0
4734 2
4735 2
4736 1
4737 2
4738 1
4739 2
4740 2
4741 2
4742 2
4743 2
4744 1
4745 2
4746 2
4747 1
4748 2
4749 2
4750 2
4751 1
4752 2
4753 2
4754 2
4755 1
4756 1
4757 2
4758 1
4759 1
4760 2
4761 2
4762 2
4763 2
4764 1
4765 2
4766 2
4767 2
4768 1
4769 2
4770 2
4771 1
4772 2
4773 2
4774 1
4775 1
4776 2
4777 1
4778 2
4779 1
4780 2
4781 1
4782 1
4783 2
4784 2
4785 2
4786 2
4787 2
4788 1
4789 2
4790 2
4791 2
4792 1
4793 1
4794 2
4795 2
4796 2
4797 2
4798 1
4799 2
4800 1
4801 2
4802 2
4803 2
4804 2
4805 2
4806 2
4807 2
4808 2
4809 1
4810 1
4811 1
4812 2
4813 2
4814 2
4815 2
4816 0
4817 2
4818 2
4819 1
4820 2
4821 1
4822 2
4823 1
4824 1
4825 1
4826 2
4827 1
4828 2
4829 2
4830 2
4831 2
4832 2
4833 2
4834 2
4835 1
4836 2
4837 2
4838 2
4839 1
4840 1
4841 2
4842 1
4843 2
4844 2
4845 1
4846 1
4847 1
4848 1
4849 2
4850 2
4851 1
4852 2
4853 1
4854 2
4855 2
4856 2
4857 2
4858 1
4859 2
4860 2
4861 2
4862 1
4863 2
4864 2
4865 1
4866 2
4867 1
4868 2
4869 2
4870 2
4871 2
4872 2
4873 2
4874 2
4875 2
4876 1
4877 1
4878 2
4879 2
4880 1
4881 2
4882 2
4883 1
4884 2
4885 2
4886 1
4887 2
4888 2
4889 1
4890 2
4891 1
4892 2
4893 1
4894 1
4895 1
4896 2
4897 2
4898 2
4899 1
4900 2
4901 2
4902 2
4903 1
4904 1
4905 2
4906 2
4907 2
4908 2
4909 1
4910 2
4911 2
4912 2
4913 2
4914 2
4915 2
4916 2
4917 1
4918 2
4919 1
4920 2
4921 2
4922 2
4923 2
4924 2
4925 1
4926 2
4927 1
4928 1
4929 2
4930 2
4931 2
4932 1
4933 2
4934 2
4935 2
4936 2
4937 1
4938 2
4939 2
4940 1
4941 2
4942 2
4943 2
4944 2
4945 2
4946 2
4947 1
4948 2
4949 2
4950 2
4951 2
4952 2
4953 2
4954 1
4955 2
4956 2
4957 2
4958 2
4959 1
4960 2
4961 2
4962 1
4963 1
4964 2
4965 1
4966 2
4967 2
4968 1
4969 1
4970 1
4971 1
4972 2
4973 1
4974 1
4975 1
4976 2
4977 1
4978 1
4979 2
4980 2
4981 2
4982 1
4983 1
4984 1
4985 1
4986 2
4987 1
4988 2
4989 1
4990 1
4991 2
4992 2
4993 2
4994 2
4995 2
4996 1
4997 1
4998 2
4999 1
5000 1
5001 2
5002 2
5003 2
5004 1
5005 2
5006 1
5007 1
5008 1
5009 1
5010 2
5011 1
5012 2
5013 2
5014 2
5015 2
5016 2
5017 2
5018 2
5019 1
5020 2
5021 2
5022 1
5023 1
5024 2
5025 2
5026 2
5027 0
5028 2
5029 1
5030 2
5031 2
5032 2
5033 1
5034 1
5035 1
5036 2
5037 2
5038 2
5039 1
5040 2
5041 1
5042 2
5043 2
5044 0
5045 1
5046 2
5047 2
5048 1
5049 2
5050 2
5051 1
5052 2
5053 1
5054 2
5055 2
5056 1
5057 2
5058 2
5059 2
5060 2
5061 2
5062 2
5063 1
5064 2
5065 2
5066 1
5067 2
5068 2
5069 2
5070 2
5071 2
5072 2
5073 1
5074 1
5075 2
5076 1
5077 1
5078 2
5079 2
5080 1
5081 1
5082 2
5083 2
5084 2
5085 1
5086 1
5087 2
5088 1
5089 1
5090 1
5091 2
5092 1
5093 2
5094 1
5095 1
5096 2
5097 1
5098 2
5099 1
5100 1
5101 2
5102 1
5103 2
5104 2
5105 1
5106 2
5107 2
5108 2
5109 1
5110 2
5111 2
5112 1
5113 1
5114 2
5115 2
5116 1
5117 2
5118 2
5119 2
5120 1
5121 2
5122 1
5123 2
5124 2
5125 1
5126 1
5127 2
5128 1
5129 2
5130 2
5131 2
5132 1
5133 1
5134 2
5135 1
5136 2
5137 2
5138 2
5139 2
5140 1
5141 2
5142 2
5143 2
5144 1
5145 2
5146 2
5147 2
5148 2
5149 2
5150 2
5151 1
5152 2
5153 1
5154 2
5155 2
5156 2
5157 1
5158 2
5159 2
5160 1
5161 2
5162 1
5163 1
5164 1
5165 2
5166 2
5167 1
5168 1
5169 1
5170 1
5171 2
5172 2
5173 1
5174 2
5175 1
5176 2
5177 1
5178 1
5179 2
5180 2
5181 2
5182 1
5183 1
5184 1
5185 2
5186 2
5187 2
5188 2
5189 1
5190 1
5191 2
5192 2
5193 1
5194 2
5195 2
5196 2
5197 2
5198 2
5199 2
5200 2
5201 1
5202 1
5203 2
5204 2
5205 2
5206 2
5207 1
5208 2
5209 1
5210 1
5211 2
5212 2
5213 1
5214 2
5215 2
5216 1
5217 2
5218 1
5219 2
5220 0
5221 2
5222 2
5223 1
5224 2
5225 2
5226 1
5227 2
5228 2
5229 1
5230 2
5231 1
5232 1
5233 2
5234 2
5235 2
5236 1
5237 1
5238 1
5239 1
5240 2
5241 2
5242 1
5243 2
5244 1
5245 2
5246 1
5247 1
5248 1
5249 1
5250 2
5251 2
5252 2
5253 2
5254 1
5255 1
5256 2
5257 2
5258 2
5259 1
5260 2
5261 2
5262 1
5263 1
5264 2
5265 2
5266 2
5267 2
5268 2
5269 2
5270 2
5271 1
5272 2
5273 2
5274 2
5275 2
5276 2
5277 2
5278 1
5279 1
5280 2
5281 1
5282 2
5283 2
5284 1
5285 0
5286 1
5287 1
5288 1
5289 1
5290 2
5291 2
5292 1
5293 2
5294 2
5295 2
5296 2
5297 1
5298 2
5299 2
5300 1
5301 2
5302 2
5303 1
5304 2
5305 2
5306 2
5307 1
5308 1
5309 2
5310 2
5311 2
5312 1
5313 2
5314 1
5315 2
5316 1
5317 2
5318 2
5319 1
5320 1
5321 2
5322 2
5323 2
5324 1
5325 2
5326 2
5327 1
5328 2
5329 1
5330 2
5331 1
5332 2
5333 2
5334 2
5335 2
5336 2
5337 2
5338 1
5339 2
5340 2
5341 2
5342 2
5343 2
5344 2
5345 1
5346 2
5347 2
5348 1
5349 1
5350 2
5351 2
5352 1
5353 2
5354 2
5355 2
5356 2
5357 2
5358 1
5359 1
5360 1
5361 2
5362 2
5363 1
5364 2
5365 2
5366 2
5367 2
5368 1
5369 2
5370 1
5371 1
5372 2
5373 2
5374 2
5375 1
5376 2
5377 1
5378 2
5379 2
5380 1
5381 2
5382 2
5383 2
5384 2
5385 2
5386 1
5387 1
5388 2
5389 2
5390 2
5391 2
5392 2
5393 1
5394 2
5395 2
5396 1
5397 1
5398 2
5399 1
5400 1
5401 1
5402 1
5403 1
5404 2
5405 1
5406 2
5407 2
5408 2
5409 1
5410 1
5411 2
5412 2
5413 2
5414 2
5415 2
5416 1
5417 2
5418 2
5419 1
5420 1
5421 2
5422 1
5423 1
5424 2
5425 1
5426 2
5427 2
5428 1
5429 1
5430 1
5431 2
5432 2
5433 1
5434 2
5435 2
5436 1
5437 1
5438 2
5439 2
5440 1
5441 2
5442 2
5443 1
5444 1
5445 1
5446 1
5447 1
5448 2
5449 2
5450 2
5451 2
5452 2
5453 1
5454 1
5455 1
5456 1
5457 2
5458 2
5459 2
5460 2
5461 2
5462 2
5463 2
5464 2
5465 2
5466 2
5467 2
5468 2
5469 2
5470 2
5471 2
5472 2
5473 1
5474 1
5475 2
5476 2
5477 1
5478 2
5479 1
5480 2
5481 1
5482 2
5483 2
5484 1
5485 2
5486 2
5487 1
5488 2
5489 1
5490 2
5491 2
5492 2
5493 2
5494 2
5495 1
5496 2
5497 2
5498 2
5499 2
5500 2
5501 1
5502 1
5503 2
5504 1
5505 1
5506 2
5507 2
5508 2
5509 2
5510 2
5511 2
5512 1
5513 2
5514 2
5515 1
5516 2
5517 2
5518 2
5519 2
5520 2
5521 2
5522 2
5523 2
5524 0
5525 2
5526 2
5527 1
5528 2
5529 2
5530 1
5531 1
5532 1
5533 1
5534 2
5535 1
5536 2
5537 2
5538 1
5539 1
5540 2
5541 1
5542 2
5543 2
5544 1
5545 2
5546 1
5547 1
5548 2
5549 1
5550 2
5551 1
5552 1
5553 2
5554 2
5555 2
5556 1
5557 1
5558 2
5559 2
5560 2
5561 1
5562 2
5563 1
5564 2
5565 2
5566 2
5567 1
5568 1
5569 2
5570 1
5571 1
5572 1
5573 2
5574 2
5575 2
5576 2
5577 1
5578 1
5579 2
5580 2
5581 1
5582 2
5583 2
5584 2
5585 2
5586 1
5587 1
5588 2
5589 2
5590 2
5591 1
5592 1
5593 1
5594 2
5595 1
5596 2
5597 1
5598 2
5599 2
5600 1
5601 2
5602 2
5603 1
5604 2
5605 2
5606 2
5607 2
5608 1
5609 2
5610 1
5611 2
5612 1
5613 1
5614 1
5615 1
5616 1
5617 2
5618 1
5619 2
5620 1
5621 2
5622 2
5623 2
5624 2
5625 1
5626 1
5627 2
5628 2
5629 2
5630 2
5631 2
5632 1
5633 2
5634 1
5635 2
5636 1
5637 2
5638 2
5639 2
5640 2
5641 2
5642 2
5643 2
5644 2
5645 2
5646 2
5647 1
5648 1
5649 2
5650 1
5651 2
5652 1
5653 1
5654 2
5655 1
5656 2
5657 1
5658 2
5659 2
5660 2
5661 2
5662 1
5663 2
5664 2
5665 1
5666 1
5667 2
5668 2
5669 2
5670 1
5671 2
5672 1
5673 2
5674 2
5675 2
5676 1
5677 2
5678 1
5679 1
5680 1
5681 1
5682 1
5683 2
5684 2
5685 2
5686 1
5687 2
5688 2
5689 2
5690 1
5691 1
5692 2
5693 1
5694 1
5695 2
5696 2
5697 2
5698 1
5699 1
5700 1
5701 1
5702 1
5703 2
5704 2
5705 2
5706 2
5707 2
5708 2
5709 2
5710 2
5711 1
5712 1
5713 1
5714 1
5715 2
5716 2
5717 1
5718 2
5719 2
5720 2
5721 1
5722 2
5723 2
5724 2
5725 2
5726 1
5727 1
5728 2
5729 2
5730 2
5731 1
5732 2
5733 1
5734 2
5735 2
5736 2
5737 1
5738 1
5739 2
5740 2
5741 2
5742 2
5743 1
5744 1
5745 2
5746 1
5747 1
5748 2
5749 1
5750 1
5751 1
5752 2
5753 2
5754 1
5755 1
5756 1
5757 2
5758 1
5759 1
5760 1
5761 2
5762 1
5763 1
5764 1
5765 1
5766 2
5767 2
5768 2
5769 2
5770 2
5771 0
5772 2
5773 2
5774 1
5775 2
5776 2
5777 1
5778 1
5779 1
5780 2
5781 1
5782 2
5783 2
5784 1
5785 2
5786 2
5787 1
5788 2
5789 2
5790 1
5791 2
5792 2
5793 1
5794 2
5795 1
5796 1
5797 2
5798 1
5799 2
5800 2
5801 2
5802 2
5803 2
5804 2
5805 2
5806 1
5807 1
5808 2
5809 2
5810 1
5811 0
5812 2
5813 2
5814 2
5815 2
5816 2
5817 2
5818 2
5819 2
5820 2
5821 2
5822 2
5823 1
5824 2
5825 2
5826 2
5827 1
5828 1
5829 1
5830 1
5831 2
5832 2
5833 1
5834 2
5835 2
5836 1
5837 2
5838 2
5839 2
5840 1
5841 2
5842 2
5843 1
5844 2
5845 2
5846 2
5847 2
5848 2
5849 2
5850 1
5851 2
5852 2
5853 1
5854 2
5855 1
5856 2
5857 1
5858 2
5859 1
5860 1
5861 2
5862 1
5863 2
5864 1
5865 1
5866 2
5867 1
5868 2
5869 1
5870 2
5871 2
5872 2
5873 1
5874 1
5875 2
5876 1
5877 2
5878 1
5879 1
5880 2
5881 2
5882 2
5883 1
5884 2
5885 1
5886 1
5887 1
5888 1
5889 1
5890 1
5891 2
5892 0
5893 2
5894 2
5895 1
5896 1
5897 2
5898 1
5899 2
5900 2
5901 2
5902 2
5903 2
5904 1
5905 1
5906 2
5907 1
5908 2
5909 2
5910 1
5911 2
5912 1
5913 2
5914 2
5915 2
5916 2
5917 2
5918 2
5919 1
5920 2
5921 2
5922 2
5923 2
5924 1
5925 2
5926 2
5927 1
5928 2
5929 2
5930 1
5931 1
5932 2
5933 1
5934 1
5935 2
5936 2
5937 2
5938 1
5939 1
5940 1
5941 2
5942 2
5943 2
5944 1
5945 2
5946 1
5947 1
5948 2
5949 2
5950 2
5951 1
5952 2
5953 2
5954 1
5955 2
5956 1
5957 1
5958 2
5959 1
5960 2
5961 1
5962 2
5963 1
5964 2
5965 2
5966 1
5967 1
5968 1
5969 2
5970 1
5971 2
5972 1
5973 2
5974 2
5975 2
5976 1
5977 1
5978 2
5979 2
5980 1
5981 2
5982 2
5983 2
5984 1
5985 1
5986 2
5987 2
5988 1
5989 2
5990 1
5991 1
5992 1
5993 2
5994 1
5995 2
5996 2
5997 2
5998 2
5999 1
6000 2
6001 1
6002 1
6003 2
6004 0
6005 2
6006 2
6007 1
6008 2
6009 2
6010 1
6011 2
6012 2
6013 2
6014 1
6015 1
6016 2
6017 2
6018 1
6019 1
6020 2
6021 1
6022 2
6023 1
6024 2
6025 2
6026 2
6027 2
6028 1
6029 1
6030 1
6031 1
6032 2
6033 2
6034 2
6035 2
6036 2
6037 2
6038 2
6039 1
6040 2
6041 2
6042 2
6043 1
6044 1
6045 2
6046 1
6047 2
6048 2
6049 1
6050 2
6051 1
6052 2
6053 2
6054 2
6055 2
6056 2
6057 1
6058 2
6059 1
6060 2
6061 1
6062 1
6063 1
6064 1
6065 1
6066 1
6067 2
6068 2
6069 1
6070 2
6071 2
6072 1
6073 1
6074 2
6075 2
6076 2
6077 2
6078 1
6079 1
6080 2
6081 1
6082 2
6083 1
6084 2
6085 0
6086 1
6087 1
6088 2
6089 2
6090 1
6091 1
6092 1
6093 1
6094 2
6095 2
6096 1
6097 2
6098 2
6099 2
6100 2
6101 1
6102 2
6103 2
6104 2
6105 1
6106 2
6107 1
6108 2
6109 2
6110 1
6111 2
6112 1
6113 1
6114 2
6115 1
6116 2
6117 2
6118 1
6119 2
6120 2
6121 1
6122 2
6123 1
6124 2
6125 1
6126 1
6127 2
6128 2
6129 1
6130 1
6131 1
6132 2
6133 1
6134 1
6135 1
6136 2
6137 2
6138 2
6139 1
6140 1
6141 2
6142 2
6143 1
6144 2
6145 2
6146 1
6147 1
6148 2
6149 2
6150 2
6151 1
6152 2
6153 2
6154 2
6155 2
6156 2
6157 2
6158 1
6159 1
6160 1
6161 1
6162 2
6163 1
6164 2
6165 2
6166 2
6167 2
6168 2
6169 2
6170 2
6171 2
6172 1
6173 1
6174 2
6175 2
6176 2
6177 2
6178 1
6179 1
6180 1
6181 1
6182 2
6183 1
6184 2
6185 1
6186 2
6187 2
6188 1
6189 1
6190 2
6191 2
6192 1
6193 2
6194 1
6195 2
6196 1
6197 2
6198 2
6199 2
6200 2
6201 1
6202 2
6203 2
6204 1
6205 2
6206 2
6207 1
6208 2
6209 2
6210 1
6211 2
6212 2
6213 2
6214 1
6215 1
6216 2
6217 2
6218 1
6219 1
6220 2
6221 1
6222 2
6223 2
6224 1
6225 2
6226 1
6227 1
6228 1
6229 1
6230 2
6231 2
6232 2
6233 2
6234 1
6235 2
6236 1
6237 2
6238 2
6239 1
6240 1
6241 2
6242 2
6243 1
6244 1
6245 1
6246 1
6247 2
6248 2
6249 2
6250 2
6251 1
6252 1
6253 2
6254 2
6255 2
6256 1
6257 2
6258 2
6259 2
6260 1
6261 1
6262 1
6263 2
6264 2
6265 1
6266 1
6267 2
6268 1
6269 2
6270 2
6271 2
6272 2
6273 2
6274 2
6275 1
6276 1
6277 1
6278 1
6279 1
6280 1
6281 1
6282 2
6283 2
6284 1
6285 2
6286 1
6287 1
6288 2
6289 1
6290 1
6291 1
6292 1
6293 1
6294 1
6295 0
6296 2
6297 1
6298 2
6299 2
6300 2
6301 1
6302 1
6303 2
6304 2
6305 2
6306 2
6307 2
6308 2
6309 2
6310 1
6311 2
6312 2
6313 2
6314 2
6315 2
6316 1
6317 1
6318 2
6319 1
6320 1
6321 2
6322 1
6323 2
6324 2
6325 2
6326 1
6327 1
6328 1
6329 2
6330 1
6331 2
6332 1
6333 2
6334 2
6335 1
6336 1
6337 2
6338 1
6339 2
6340 2
6341 1
6342 1
6343 2
6344 2
6345 1
6346 1
6347 2
6348 1
6349 2
6350 2
6351 2
6352 2
6353 1
6354 1
6355 2
6356 1
6357 2
6358 1
6359 2
6360 2
6361 1
6362 1
6363 2
6364 2
6365 2
6366 1
6367 1
6368 1
6369 2
6370 2
6371 2
6372 1
6373 1
6374 1
6375 1
6376 2
6377 2
6378 1
6379 2
6380 0
6381 1
6382 2
6383 2
6384 1
6385 1
6386 2
6387 2
6388 1
6389 1
6390 2
6391 2
6392 2
6393 2
6394 1
6395 1
6396 1
6397 2
6398 2
6399 2
6400 2
6401 1
6402 1
6403 1
6404 1
6405 1
6406 2
6407 1
6408 1
6409 1
6410 2
6411 2
6412 2
6413 1
6414 1
6415 1
6416 2
6417 2
6418 1
6419 2
6420 0
6421 2
6422 2
6423 2
6424 2
6425 2
6426 1
6427 2
6428 2
6429 2
6430 1
6431 2
6432 2
6433 2
6434 1
6435 2
6436 1
6437 2
6438 1
6439 2
6440 1
6441 2
6442 2
6443 1
6444 2
6445 2
6446 2
6447 1
6448 1
6449 2
6450 2
6451 2
6452 1
6453 2
6454 2
6455 2
6456 2
6457 1
6458 2
6459 1
6460 2
6461 2
6462 1
6463 0
6464 1
6465 2
6466 1
6467 2
6468 2
6469 2
6470 2
6471 2
6472 1
6473 1
6474 2
6475 1
6476 2
6477 2
6478 1
6479 2
6480 1
6481 2
6482 1
6483 1
6484 2
6485 2
6486 2
6487 2
6488 1
6489 2
6490 2
6491 1
6492 1
6493 2
6494 2
6495 2
6496 1
6497 0
6498 2
6499 2
6500 2
6501 2
6502 2
6503 1
6504 2
6505 2
6506 2
6507 2
6508 1
6509 2
6510 1
6511 2
6512 1
6513 1
6514 2
6515 1
6516 2
6517 1
6518 1
6519 1
6520 2
6521 2
6522 1
6523 1
6524 2
6525 1
6526 2
6527 1
6528 2
6529 2
6530 1
6531 1
6532 2
6533 2
6534 1
6535 1
6536 2
6537 2
6538 2
6539 1
6540 2
6541 1
6542 2
6543 2
6544 2
6545 1
6546 2
6547 2
6548 1
6549 2
6550 1
6551 1
6552 2
6553 1
6554 1
6555 2
6556 2
6557 1
6558 2
6559 1
6560 2
6561 2
6562 2
6563 2
6564 1
6565 1
6566 2
6567 2
6568 1
6569 2
6570 2
6571 2
6572 1
6573 2
6574 1
6575 1
6576 2
6577 2
6578 2
6579 2
6580 2
6581 2
6582 1
6583 1
6584 1
6585 1
6586 2
6587 1
6588 1
6589 2
6590 2
6591 1
6592 2
6593 2
6594 1
6595 2
6596 2
6597 2
6598 2
6599 2
6600 2
6601 2
6602 2
6603 1
6604 2
6605 2
6606 2
6607 2
6608 0
6609 2
6610 1
6611 2
6612 2
6613 2
6614 2
6615 2
6616 2
6617 2
6618 1
6619 2
6620 2
6621 1
6622 2
6623 2
6624 1
6625 1
6626 2
6627 2
6628 1
6629 2
6630 0
6631 1
6632 1
6633 1
6634 1
6635 1
6636 2
6637 1
6638 1
6639 1
6640 1
6641 1
6642 2
6643 1
6644 1
6645 1
6646 1
6647 1
6648 1
6649 1
6650 2
6651 1
6652 1
6653 1
6654 2
6655 2
6656 2
6657 2
6658 2
6659 2
6660 2
6661 2
6662 2
6663 1
6664 2
6665 1
6666 1
6667 2
6668 1
6669 2
6670 2
6671 2
6672 1
6673 1
6674 2
6675 2
6676 1
6677 2
6678 2
6679 2
6680 2
6681 2
6682 1
6683 2
6684 2
6685 1
6686 2
6687 2
6688 2
6689 1
6690 2
6691 2
6692 1
6693 1
6694 2
6695 1
6696 1
6697 2
6698 2
6699 2
6700 2
6701 2
6702 2
6703 1
6704 2
6705 2
6706 2
6707 2
6708 1
6709 2
6710 2
6711 2
6712 1
6713 2
6714 2
6715 2
6716 1
6717 1
6718 2
6719 2
6720 2
6721 2
6722 2
6723 2
6724 2
6725 2
6726 1
6727 2
6728 2
6729 2
6730 1
6731 1
6732 1
6733 2
6734 2
6735 2
6736 2
6737 2
6738 2
6739 2
6740 1
6741 2
6742 2
6743 2
6744 0
6745 2
6746 2
6747 2
6748 1
6749 1
6750 2
6751 2
6752 2
6753 2
6754 2
6755 1
6756 2
6757 1
6758 2
6759 2
6760 2
6761 1
6762 2
6763 2
6764 2
6765 2
6766 2
6767 2
6768 2
6769 1
6770 2
6771 2
6772 2
6773 2
6774 2
6775 1
6776 2
6777 1
6778 2
6779 1
6780 2
6781 1
6782 1
6783 2
6784 2
6785 1
6786 2
6787 2
6788 2
6789 1
6790 2
6791 1
6792 2
6793 1
6794 1
6795 2
6796 1
6797 2
6798 2
6799 2
6800 2
6801 2
6802 2
6803 1
6804 1
6805 0
6806 2
6807 2
6808 2
6809 1
6810 1
6811 2
6812 2
6813 2
6814 1
6815 2
6816 1
6817 2
6818 2
6819 2
6820 1
6821 2
6822 1
6823 2
6824 1
6825 2
6826 2
6827 1
6828 2
6829 1
6830 1
6831 1
6832 2
6833 2
6834 1
6835 1
6836 2
6837 1
6838 1
6839 2
6840 2
6841 2
6842 2
6843 2
6844 2
6845 1
6846 2
6847 1
6848 2
6849 2
6850 2
6851 2
6852 1
6853 2
6854 1
6855 2
6856 1
6857 2
6858 1
6859 2
6860 2
6861 2
6862 2
6863 1
6864 2
6865 2
6866 2
6867 1
6868 2
6869 2
6870 2
6871 1
6872 1
6873 2
6874 1
6875 2
6876 1
6877 2
6878 1
6879 1
6880 2
6881 1
6882 1
6883 1
6884 1
6885 2
6886 1
6887 2
6888 1
6889 2
6890 2
6891 2
6892 1
6893 2
6894 1
6895 2
6896 2
6897 2
6898 1
6899 2
6900 1
6901 2
6902 2
6903 1
6904 2
6905 2
6906 1
6907 1
6908 2
6909 1
6910 1
6911 1
6912 2
6913 2
6914 2
6915 2
6916 2
6917 2
6918 1
6919 1
6920 1
6921 1
6922 2
6923 1
6924 2
6925 2
6926 2
6927 2
6928 2
6929 2
6930 2
6931 2
6932 2
6933 2
6934 2
6935 2
6936 2
6937 2
6938 2
6939 2
6940 2
6941 1
6942 2
6943 2
6944 2
6945 1
6946 1
6947 2
6948 0
6949 2
6950 2
6951 1
6952 2
6953 2
6954 2
6955 2
6956 2
6957 1
6958 1
6959 2
6960 2
6961 2
6962 1
6963 2
6964 2
6965 2
6966 2
6967 1
6968 2
6969 1
6970 1
6971 1
6972 2
6973 1
6974 2
6975 2
6976 2
6977 2
6978 2
6979 2
6980 2
6981 2
6982 1
6983 2
6984 2
6985 1
6986 1
6987 1
6988 1
6989 2
6990 2
6991 2
6992 2
6993 1
6994 2
6995 2
6996 2
6997 2
6998 1
6999 1
7000 1
7001 2
7002 2
7003 1
7004 1
7005 2
7006 2
7007 2
7008 1
7009 2
7010 2
7011 2
7012 1
7013 1
7014 1
7015 1
7016 2
7017 1
7018 2
7019 2
7020 2
7021 2
7022 1
7023 2
7024 1
7025 2
7026 1
7027 2
7028 2
7029 2
7030 2
7031 1
7032 1
7033 1
7034 1
7035 1
7036 2
7037 1
7038 2
7039 2
7040 2
7041 1
7042 2
7043 2
7044 1
7045 1
7046 2
7047 2
7048 1
7049 2
7050 2
7051 1
7052 1
7053 1
7054 1
7055 2
7056 1
7057 2
7058 2
7059 2
7060 2
7061 2
7062 2
7063 1
7064 2
7065 2
7066 1
7067 2
7068 2
7069 2
7070 2
7071 2
7072 2
7073 2
7074 1
7075 2
7076 2
7077 1
7078 1
7079 1
7080 0
7081 2
7082 2
7083 2
7084 2
7085 1
7086 1
7087 2
7088 1
7089 2
7090 1
7091 2
7092 2
7093 2
7094 2
7095 2
7096 1
7097 2
7098 2
7099 1
7100 2
7101 1
7102 2
7103 1
7104 1
7105 2
7106 1
7107 2
7108 2
7109 2
7110 2
7111 1
7112 1
7113 2
7114 2
7115 1
7116 1
7117 2
7118 2
7119 2
7120 1
7121 2
7122 1
7123 1
7124 2
7125 2
7126 2
7127 2
7128 1
7129 2
7130 2
7131 2
7132 1
7133 1
7134 1
7135 1
7136 1
7137 1
7138 1
7139 1
7140 1
7141 2
7142 2
7143 1
7144 2
7145 1
7146 2
7147 1
7148 1
7149 1
7150 1
7151 1
7152 2
7153 2
7154 1
7155 2
7156 2
7157 1
7158 2
7159 2
7160 2
7161 2
7162 2
7163 1
7164 2
7165 1
7166 1
7167 1
7168 1
7169 2
7170 2
7171 2
7172 2
7173 1
7174 2
7175 2
7176 2
7177 1
7178 2
7179 1
7180 1
7181 1
7182 2
7183 2
7184 1
7185 2
7186 2
7187 1
7188 1
7189 2
7190 1
7191 2
7192 1
7193 2
7194 2
7195 2
7196 2
7197 1
7198 2
7199 2
7200 2
7201 2
7202 1
7203 2
7204 1
7205 2
7206 2
7207 2
7208 2
7209 2
7210 1
7211 2
7212 2
7213 2
7214 2
7215 2
7216 2
7217 2
7218 2
7219 2
7220 1
7221 1
7222 1
7223 1
7224 1
7225 2
7226 2
7227 2
7228 1
7229 1
7230 2
7231 1
7232 1
7233 1
7234 2
7235 2
7236 1
7237 1
7238 1
7239 1
7240 2
7241 2
7242 2
7243 1
7244 1
7245 2
7246 1
7247 1
7248 2
7249 2
7250 1
7251 2
7252 2
7253 1
7254 1
7255 2
7256 1
7257 1
7258 2
7259 2
7260 2
7261 2
7262 1
7263 1
7264 1
7265 2
7266 2
7267 2
7268 2
7269 2
7270 1
7271 1
7272 2
7273 2
7274 2
7275 2
7276 2
7277 0
7278 1
7279 2
7280 1
7281 2
7282 2
7283 2
7284 2
7285 2
7286 2
7287 2
7288 1
7289 2
7290 2
7291 2
7292 1
7293 1
7294 1
7295 1
7296 1
7297 1
7298 1
7299 2
7300 2
7301 1
7302 1
7303 2
7304 2
7305 2
7306 2
7307 2
7308 2
7309 2
7310 1
7311 2
7312 2
7313 2
7314 2
7315 1
7316 1
7317 1
7318 1
7319 2
7320 1
7321 1
7322 1
7323 1
7324 2
7325 2
7326 1
7327 2
7328 2
7329 2
7330 2
7331 1
7332 2
7333 2
7334 1
7335 2
7336 1
7337 1
7338 1
7339 1
7340 2
7341 2
7342 2
7343 1
7344 2
7345 2
7346 1
7347 2
7348 2
7349 2
7350 2
7351 2
7352 1
7353 2
7354 1
7355 1
7356 2
7357 1
7358 2
7359 1
7360 1
7361 1
7362 2
7363 1
7364 2
7365 2
7366 1
7367 1
7368 1
7369 1
7370 2
7371 1
7372 1
7373 1
7374 1
7375 1
7376 2
7377 1
7378 2
7379 2
7380 2
7381 1
7382 2
7383 1
7384 2
7385 2
7386 1
7387 1
7388 2
7389 1
7390 2
7391 1
7392 1
7393 1
7394 2
7395 2
7396 1
7397 1
7398 2
7399 2
7400 1
7401 1
7402 2
7403 2
7404 2
7405 1
7406 2
7407 2
7408 0
7409 2
7410 1
7411 2
7412 2
7413 1
7414 2
7415 2
7416 2
7417 1
7418 2
7419 1
7420 1
7421 1
7422 2
7423 1
7424 2
7425 1
7426 2
7427 2
7428 1
7429 2
7430 2
7431 2
7432 2
7433 1
7434 1
7435 2
7436 1
7437 1
7438 2
7439 1
7440 2
7441 2
7442 1
7443 2
7444 2
7445 1
7446 2
7447 2
7448 1
7449 2
7450 2
7451 2
7452 2
7453 2
7454 1
7455 2
7456 1
7457 2
7458 1
7459 2
7460 2
7461 2
7462 1
7463 2
7464 2
7465 2
7466 2
7467 2
7468 2
7469 2
7470 2
7471 1
7472 2
7473 1
7474 2
7475 2
7476 1
7477 2
7478 2
7479 1
7480 2
7481 2
7482 2
7483 2
7484 1
7485 2
7486 2
7487 1
7488 2
7489 2
7490 2
7491 1
7492 1
7493 2
7494 1
7495 1
7496 1
7497 2
7498 1
7499 2
7500 1
7501 1
7502 2
7503 2
7504 2
7505 2
7506 2
7507 2
7508 2
7509 1
7510 2
7511 2
7512 1
7513 2
7514 2
7515 2
7516 2
7517 2
7518 2
7519 2
7520 1
7521 1
7522 2
7523 2
7524 2
7525 1
7526 1
7527 1
7528 1
7529 2
7530 2
7531 2
7532 2
7533 2
7534 1
7535 1
7536 1
7537 2
7538 2
7539 1
7540 1
7541 1
7542 2
7543 1
7544 0
7545 1
7546 2
7547 1
7548 1
7549 1
7550 1
7551 2
7552 1
7553 2
7554 1
7555 2
7556 2
7557 2
7558 2
7559 1
7560 1
7561 2
7562 2
7563 2
7564 2
7565 2
7566 2
7567 2
7568 1
7569 1
7570 1
7571 1
7572 1
7573 2
7574 2
7575 1
7576 2
7577 1
7578 2
7579 2
7580 1
7581 2
7582 2
7583 2
7584 2
7585 1
7586 1
7587 1
7588 1
7589 2
7590 2
7591 2
7592 1
7593 2
7594 2
7595 2
7596 1
7597 2
7598 2
7599 1
7600 2
7601 2
7602 2
7603 2
7604 1
7605 1
7606 2
7607 2
7608 1
7609 2
7610 2
7611 2
7612 2
7613 2
7614 1
7615 2
7616 2
7617 2
7618 2
7619 2
7620 2
7621 1
7622 1
7623 2
7624 2
7625 2
7626 2
7627 2
7628 2
7629 1
7630 2
7631 2
7632 2
7633 2
7634 1
7635 1
7636 1
7637 1
7638 2
7639 1
7640 1
7641 1
7642 1
7643 2
7644 2
7645 1
7646 2
7647 2
7648 1
7649 2
7650 2
7651 1
7652 1
7653 1
7654 1
7655 1
7656 2
7657 2
7658 2
7659 1
7660 2
7661 1
7662 1
7663 2
7664 1
7665 1
7666 2
7667 2
7668 2
7669 2
7670 2
7671 1
7672 2
7673 2
7674 2
7675 2
7676 2
7677 2
7678 1
7679 2
7680 1
7681 1
7682 2
7683 2
7684 2
7685 1
7686 1
7687 2
7688 1
7689 2
7690 2
7691 2
7692 2
7693 1
7694 2
7695 2
7696 1
7697 1
7698 1
7699 1
7700 1
7701 1
7702 2
7703 1
7704 2
7705 2
7706 2
7707 2
7708 1
7709 1
7710 2
7711 1
7712 2
7713 2
7714 2
7715 1
7716 1
7717 1
7718 1
7719 2
7720 1
7721 1
7722 1
7723 2
7724 1
7725 2
7726 1
7727 2
7728 1
7729 1
7730 1
7731 2
7732 2
7733 2
7734 1
7735 2
7736 2
7737 1
7738 2
7739 2
7740 1
7741 1
7742 1
7743 2
7744 2
7745 2
7746 2
7747 1
7748 2
7749 1
7750 2
7751 1
7752 2
7753 2
7754 1
7755 2
7756 2
7757 2
7758 1
7759 1
7760 1
7761 1
7762 1
7763 1
7764 1
7765 1
7766 2
7767 1
7768 2
7769 2
7770 2
7771 1
7772 2
7773 2
7774 2
7775 1
7776 2
7777 1
7778 1
7779 2
7780 1
7781 2
7782 2
7783 2
7784 2
7785 2
7786 2
7787 2
7788 1
7789 2
7790 1
7791 1
7792 1
7793 1
7794 2
7795 1
7796 2
7797 1
7798 2
7799 2
7800 2
7801 2
7802 1
7803 1
7804 2
7805 2
7806 2
7807 2
7808 1
7809 1
7810 1
7811 2
7812 1
7813 2
7814 1
7815 2
7816 1
7817 2
7818 1
7819 2
7820 1
7821 1
7822 1
7823 1
7824 1
7825 2
7826 2
7827 1
7828 1
7829 2
7830 2
7831 2
7832 2
7833 2
7834 1
7835 1
7836 2
7837 2
7838 2
7839 1
7840 2
7841 2
7842 1
7843 2
7844 2
7845 1
7846 1
7847 2
7848 1
7849 2
7850 1
7851 2
7852 2
7853 1
7854 2
7855 1
7856 1
7857 2
7858 1
7859 2
7860 2
7861 2
7862 1
7863 1
7864 2
7865 1
7866 1
7867 1
7868 2
7869 1
7870 2
7871 2
7872 2
7873 2
7874 2
7875 1
7876 2
7877 2
7878 1
7879 2
7880 2
7881 1
7882 2
7883 2
7884 1
7885 1
7886 2
7887 2
7888 2
7889 2
7890 2
7891 2
7892 2
7893 2
7894 1
7895 2
7896 1
7897 2
7898 1
7899 2
7900 2
7901 1
7902 2
7903 2
7904 1
7905 2
7906 2
7907 2
7908 2
7909 2
7910 2
7911 2
7912 2
7913 1
7914 2
7915 2
7916 1
7917 2
7918 2
7919 2
7920 2
7921 2
7922 2
7923 2
7924 1
7925 1
7926 0
7927 2
7928 1
7929 2
7930 1
7931 2
7932 0
7933 2
7934 2
7935 2
7936 1
7937 2
7938 1
7939 2
7940 1
7941 1
7942 2
7943 1
7944 2
7945 2
7946 2
7947 2
7948 2
7949 2
7950 2
7951 0
7952 2
7953 2
7954 1
7955 2
7956 2
7957 1
7958 2
7959 1
7960 2
7961 1
7962 2
7963 2
7964 2
7965 1
7966 1
7967 1
7968 2
7969 2
7970 1
7971 1
7972 1
7973 2
7974 2
7975 1
7976 2
7977 1
7978 2
7979 1
7980 1
7981 2
7982 1
7983 2
7984 1
7985 2
7986 2
7987 2
7988 2
7989 1
7990 1
7991 2
7992 0
7993 2
7994 2
7995 0
7996 1
7997 1
7998 1
7999 1
8000 1
8001 1
8002 2
8003 1
8004 2
8005 1
8006 2
8007 2
8008 1
8009 2
8010 2
8011 2
8012 2
8013 1
8014 1
8015 1
8016 1
8017 1
8018 1
8019 1
8020 1
8021 0
8022 1
8023 2
8024 2
8025 2
8026 2
8027 1
8028 2
8029 1
8030 2
8031 2
8032 1
8033 2
8034 2
8035 2
8036 2
8037 1
8038 2
8039 1
8040 2
8041 2
8042 1
8043 2
8044 2
8045 2
8046 2
8047 1
8048 1
8049 1
8050 2
8051 2
8052 2
8053 1
8054 1
8055 1
8056 2
8057 1
8058 1
8059 2
8060 2
8061 0
8062 1
8063 2
8064 2
8065 1
8066 1
8067 2
8068 1
8069 2
8070 1
8071 2
8072 1
8073 1
8074 2
8075 2
8076 1
8077 2
8078 1
8079 1
8080 1
8081 1
8082 2
8083 2
8084 1
8085 2
8086 2
8087 2
8088 1
8089 1
8090 1
8091 1
8092 1
8093 2
8094 1
8095 1
8096 1
8097 1
8098 1
8099 2
8100 2
8101 1
8102 2
8103 2
8104 2
8105 2
8106 2
8107 2
8108 1
8109 2
8110 2
8111 1
8112 1
8113 2
8114 1
8115 2
8116 1
8117 2
8118 1
8119 1
8120 2
8121 1
8122 1
8123 2
8124 2
8125 1
8126 1
8127 2
8128 1
8129 1
8130 1
8131 1
8132 2
8133 2
8134 1
8135 1
8136 2
8137 1
8138 2
8139 2
8140 2
8141 1
8142 2
8143 1
8144 2
8145 1
8146 2
8147 2
8148 1
8149 1
8150 1
8151 2
8152 1
8153 2
8154 1
8155 2
8156 1
8157 1
8158 1
8159 2
8160 2
8161 2
8162 1
8163 2
8164 1
8165 1
8166 2
8167 2
8168 2
8169 1
8170 2
8171 2
8172 1
8173 2
8174 2
8175 1
8176 2
8177 2
8178 2
8179 2
8180 2
8181 2
8182 1
8183 1
8184 2
8185 1
8186 1
8187 2
8188 1
8189 2
8190 1
8191 2
8192 2
8193 1
8194 2
8195 2
8196 2
8197 2
8198 2
8199 1
8200 1
8201 2
8202 2
8203 2
8204 2
8205 2
8206 2
8207 2
8208 1
8209 1
8210 1
8211 2
8212 1
8213 2
8214 2
8215 1
8216 1
8217 2
8218 1
8219 2
8220 1
8221 1
8222 1
8223 2
8224 2
8225 1
8226 2
8227 2
8228 1
8229 2
8230 2
8231 2
8232 1
8233 2
8234 2
8235 2
8236 2
8237 2
8238 2
8239 2
8240 2
8241 2
8242 1
8243 2
8244 2
8245 2
8246 2
8247 1
8248 1
8249 1
8250 2
8251 2
8252 2
8253 2
8254 2
8255 2
8256 2
8257 2
8258 1
8259 2
8260 2
8261 2
8262 1
8263 1
8264 2
8265 2
8266 1
8267 1
8268 1
8269 1
8270 2
8271 2
8272 2
8273 2
8274 1
8275 2
8276 2
8277 2
8278 2
8279 1
8280 2
8281 2
8282 2
8283 1
8284 2
8285 1
8286 2
8287 2
8288 2
8289 2
8290 2
8291 1
8292 2
8293 1
8294 1
8295 2
8296 2
8297 1
8298 2
8299 2
8300 1
8301 1
8302 2
8303 2
8304 1
8305 1
8306 2
8307 2
8308 2
8309 2
8310 2
8311 2
8312 2
8313 1
8314 1
8315 2
8316 2
8317 1
8318 2
8319 1
8320 1
8321 1
8322 1
8323 2
8324 1
8325 2
8326 2
8327 2
8328 1
8329 2
8330 2
8331 1
8332 2
8333 2
8334 1
8335 1
8336 1
8337 2
8338 2
8339 2
8340 1
8341 1
8342 2
8343 2
8344 2
8345 2
8346 1
8347 1
8348 2
8349 1
8350 2
8351 1
8352 2
8353 1
8354 1
8355 1
8356 2
8357 2
8358 1
8359 2
8360 2
8361 1
8362 2
8363 1
8364 2
8365 2
8366 1
8367 2
8368 1
8369 2
8370 1
8371 1
8372 2
8373 2
8374 1
8375 2
8376 2
8377 2
8378 2
8379 2
8380 1
8381 2
8382 2
8383 2
8384 2
8385 2
8386 2
8387 1
8388 2
8389 2
8390 2
8391 1
8392 2
8393 2
8394 1
8395 2
8396 1
8397 1
8398 1
8399 1
8400 2
8401 1
8402 2
8403 2
8404 2
8405 1
8406 2
8407 2
8408 2
8409 2
8410 1
8411 1
8412 2
8413 2
8414 2
8415 1
8416 2
8417 1
8418 2
8419 2
8420 2
8421 2
8422 2
8423 2
8424 2
8425 2
8426 2
8427 1
8428 1
8429 2
8430 2
8431 2
8432 2
8433 2
8434 2
8435 2
8436 2
8437 2
8438 2
8439 2
8440 2
8441 1
8442 2
8443 1
8444 2
8445 1
8446 1
8447 1
8448 1
8449 2
8450 2
8451 2
8452 2
8453 2
8454 2
8455 1
8456 2
8457 1
8458 1
8459 2
8460 2
8461 1
8462 2
8463 2
8464 2
8465 2
8466 2
8467 2
8468 2
8469 2
8470 1
8471 2
8472 1
8473 1
8474 1
8475 1
8476 2
8477 2
8478 1
8479 2
8480 2
8481 2
8482 2
8483 1
8484 2
8485 2
8486 1
8487 2
8488 2
8489 1
8490 2
8491 2
8492 2
8493 2
8494 2
8495 1
8496 2
8497 2
8498 1
8499 2
8500 1
8501 2
8502 1
8503 2
8504 2
8505 1
8506 1
8507 2
8508 1
8509 2
8510 2
8511 1
8512 2
8513 2
8514 1
8515 2
8516 2
8517 2
8518 2
8519 1
8520 2
8521 2
8522 2
8523 2
8524 1
8525 2
8526 2
8527 2
8528 2
8529 2
8530 1
8531 1
8532 2
8533 1
8534 2
8535 1
8536 2
8537 2
8538 2
8539 2
8540 1
8541 1
8542 2
8543 1
8544 2
8545 1
8546 1
8547 2
8548 1
8549 2
8550 2
8551 1
8552 2
8553 2
8554 2
8555 1
8556 1
8557 2
8558 2
8559 1
8560 2
8561 1
8562 2
8563 2
8564 2
8565 2
8566 1
8567 2
8568 2
8569 2
8570 2
8571 2
8572 1
8573 1
8574 2
8575 2
8576 2
8577 2
8578 1
8579 1
8580 1
8581 1
8582 2
8583 2
8584 2
8585 2
8586 2
8587 1
8588 1
8589 2
8590 2
8591 2
8592 2
8593 1
8594 1
8595 2
8596 2
8597 2
8598 2
8599 1
8600 2
8601 1
8602 2
8603 1
8604 1
8605 2
8606 1
8607 1
8608 2
8609 2
8610 1
8611 1
8612 1
8613 2
8614 2
8615 1
8616 2
8617 1
8618 2
8619 2
8620 1
8621 2
8622 2
8623 1
8624 1
8625 2
8626 1
8627 1
8628 1
8629 1
8630 2
8631 1
8632 1
8633 2
8634 2
8635 1
8636 2
8637 2
8638 2
8639 2
8640 2
8641 2
8642 2
8643 2
8644 1
8645 2
8646 1
8647 2
8648 2
8649 2
8650 2
8651 1
8652 2
8653 2
8654 2
8655 2
8656 1
8657 2
8658 2
8659 2
8660 2
8661 2
8662 2
8663 2
8664 1
8665 1
8666 2
8667 1
8668 2
8669 1
8670 1
8671 2
8672 2
8673 1
8674 1
8675 2
8676 1
8677 2
8678 1
8679 2
8680 1
8681 1
8682 1
8683 2
8684 2
8685 1
8686 2
8687 2
8688 1
8689 1
8690 2
8691 1
8692 2
8693 1
8694 2
8695 2
8696 2
8697 2
8698 2
8699 1
8700 2
8701 1
8702 1
8703 2
8704 1
8705 1
8706 2
8707 1
8708 2
8709 1
8710 2
8711 2
8712 2
8713 2
8714 1
8715 2
8716 1
8717 1
8718 2
8719 2
8720 0
8721 2
8722 1
8723 2
8724 1
8725 1
8726 1
8727 2
8728 2
8729 2
8730 2
8731 2
8732 1
8733 1
8734 1
8735 2
8736 2
8737 2
8738 2
8739 2
8740 2
8741 1
8742 2
8743 2
8744 2
8745 2
8746 1
8747 2
8748 1
8749 2
8750 1
8751 2
8752 1
8753 1
8754 2
8755 1
8756 2
8757 1
8758 2
8759 2
8760 1
8761 2
8762 2
8763 2
8764 2
8765 2
8766 2
8767 2
8768 2
8769 1
8770 2
8771 2
8772 2
8773 2
8774 1
8775 2
8776 2
8777 1
8778 2
8779 2
8780 1
8781 2
8782 2
8783 1
8784 2
8785 2
8786 1
8787 2
8788 2
8789 1
8790 1
8791 1
8792 2
8793 1
8794 1
8795 2
8796 1
8797 2
8798 1
8799 2
8800 1
8801 2
8802 2
8803 2
8804 2
8805 1
8806 1
8807 1
8808 2
8809 1
8810 2
8811 2
8812 2
8813 2
8814 1
8815 2
8816 2
8817 1
8818 1
8819 2
8820 2
8821 2
8822 1
8823 1
8824 1
8825 1
8826 2
8827 1
8828 1
8829 2
8830 2
8831 2
8832 1
8833 2
8834 2
8835 2
8836 2
8837 1
8838 2
8839 1
8840 2
8841 1
8842 2
8843 2
8844 2
8845 1
8846 2
8847 1
8848 1
8849 2
8850 1
8851 1
8852 1
8853 2
8854 1
8855 2
8856 1
8857 2
8858 1
8859 1
8860 1
8861 1
8862 1
8863 1
8864 2
8865 2
8866 2
8867 2
8868 1
8869 1
8870 2
8871 2
8872 1
8873 2
8874 2
8875 2
8876 2
8877 2
8878 2
8879 2
8880 2
8881 2
8882 2
8883 2
8884 1
8885 1
8886 2
8887 1
8888 2
8889 2
8890 2
8891 1
8892 2
8893 1
8894 2
8895 2
8896 2
8897 2
8898 1
8899 2
8900 1
8901 1
8902 2
8903 1
8904 1
8905 1
8906 2
8907 2
8908 1
8909 2
8910 1
8911 1
8912 2
8913 1
8914 2
8915 2
8916 2
8917 2
8918 2
8919 2
8920 1
8921 2
8922 1
8923 1
8924 2
8925 2
8926 1
8927 2
8928 2
8929 2
8930 2
8931 1
8932 2
8933 1
8934 2
8935 2
8936 1
8937 2
8938 2
8939 0
8940 1
8941 2
8942 2
8943 2
8944 2
8945 1
8946 2
8947 2
8948 2
8949 2
8950 1
8951 1
8952 2
8953 2
8954 2
8955 2
8956 1
8957 2
8958 1
8959 2
8960 2
8961 1
8962 2
8963 2
8964 2
8965 2
8966 1
8967 1
8968 2
8969 0
8970 2
8971 2
8972 2
8973 2
8974 1
8975 2
8976 2
8977 2
8978 2
8979 2
8980 1
8981 1
8982 2
8983 2
8984 2
8985 1
8986 2
8987 2
8988 1
8989 1
8990 2
8991 1
8992 2
8993 1
8994 2
8995 2
8996 1
8997 1
8998 1
8999 2
9000 2
9001 2
9002 1
9003 1
9004 2
9005 2
9006 1
9007 2
9008 1
9009 2
9010 2
9011 2
9012 2
9013 1
9014 1
9015 2
9016 2
9017 2
9018 2
9019 1
9020 1
9021 1
9022 2
9023 2
9024 1
9025 1
9026 1
9027 2
9028 2
9029 2
9030 2
9031 1
9032 1
9033 1
9034 2
9035 1
9036 1
9037 1
9038 1
9039 1
9040 2
9041 1
9042 2
9043 1
9044 2
9045 2
9046 2
9047 1
9048 1
9049 1
9050 1
9051 2
9052 2
9053 1
9054 1
9055 1
9056 1
9057 2
9058 2
9059 1
9060 2
9061 1
9062 2
9063 2
9064 2
9065 1
9066 1
9067 2
9068 1
9069 2
9070 2
9071 2
9072 2
9073 1
9074 2
9075 2
9076 1
9077 1
9078 2
9079 2
9080 1
9081 1
9082 2
9083 1
9084 1
9085 1
9086 2
9087 1
9088 1
9089 1
9090 1
9091 2
9092 1
9093 2
9094 1
9095 1
9096 2
9097 2
9098 1
9099 2
9100 1
9101 1
9102 2
9103 2
9104 2
9105 2
9106 2
9107 2
9108 2
9109 2
9110 2
9111 2
9112 2
9113 2
9114 2
9115 2
9116 2
9117 1
9118 2
9119 1
9120 2
9121 1
9122 2
9123 1
9124 1
9125 2
9126 2
9127 1
9128 1
9129 2
9130 1
9131 1
9132 2
9133 1
9134 2
9135 2
9136 2
9137 2
9138 1
9139 1
9140 1
9141 2
9142 1
9143 2
9144 1
9145 2
9146 2
9147 2
9148 2
9149 2
9150 2
9151 2
9152 2
9153 2
9154 2
9155 1
9156 2
9157 1
9158 2
9159 2
9160 2
9161 2
9162 2
9163 2
9164 1
9165 2
9166 1
9167 1
9168 2
9169 2
9170 2
9171 2
9172 1
9173 1
9174 2
9175 2
9176 2
9177 1
9178 2
9179 2
9180 2
9181 2
9182 1
9183 2
9184 1
9185 2
9186 1
9187 1
9188 2
9189 1
9190 1
9191 1
9192 2
9193 1
9194 1
9195 2
9196 1
9197 2
9198 1
9199 2
9200 1
9201 2
9202 1
9203 1
9204 2
9205 2
9206 2
9207 1
9208 1
9209 1
9210 2
9211 2
9212 2
9213 1
9214 2
9215 1
9216 1
9217 2
9218 1
9219 2
9220 2
9221 2
9222 1
9223 1
9224 1
9225 2
9226 2
9227 2
9228 1
9229 2
9230 1
9231 2
9232 2
9233 2
9234 2
9235 1
9236 1
9237 1
9238 2
9239 2
9240 1
9241 1
9242 2
9243 1
9244 1
9245 2
9246 2
9247 1
9248 2
9249 2
9250 2
9251 2
9252 2
9253 1
9254 1
9255 1
9256 1
9257 2
9258 2
9259 2
9260 2
9261 2
9262 2
9263 1
9264 1
9265 2
9266 2
9267 1
9268 1
9269 2
9270 2
9271 1
9272 2
9273 2
9274 1
9275 2
9276 1
9277 2
9278 1
9279 2
9280 2
9281 2
9282 2
9283 2
9284 2
9285 2
9286 2
9287 2
9288 2
9289 1
9290 2
9291 2
9292 2
9293 2
9294 2
9295 1
9296 2
9297 1
9298 1
9299 1
9300 2
9301 2
9302 2
9303 2
9304 1
9305 1
9306 1
9307 2
9308 1
9309 2
9310 2
9311 2
9312 2
9313 1
9314 1
9315 1
9316 2
9317 1
9318 2
9319 2
9320 2
9321 2
9322 2
9323 2
9324 1
9325 1
9326 1
9327 2
9328 2
9329 2
9330 2
9331 1
9332 2
9333 2
9334 2
9335 2
9336 1
9337 1
9338 1
9339 2
9340 2
9341 2
9342 1
9343 1
9344 2
9345 1
9346 2
9347 2
9348 1
9349 2
9350 2
9351 1
9352 1
9353 1
9354 2
9355 1
9356 2
9357 1
9358 2
9359 1
9360 2
9361 2
9362 2
9363 2
9364 2
9365 2
9366 1
9367 2
9368 2
9369 2
9370 2
9371 2
9372 2
9373 2
9374 2
9375 2
9376 2
9377 2
9378 1
9379 2
9380 2
9381 2
9382 2
9383 1
9384 2
9385 1
9386 2
9387 1
9388 1
9389 2
9390 2
9391 2
9392 1
9393 1
9394 2
9395 2
9396 1
9397 1
9398 1
9399 2
9400 2
9401 1
9402 2
9403 2
9404 1
9405 1
9406 1
9407 2
9408 2
9409 1
9410 2
9411 2
9412 1
9413 2
9414 2
9415 2
9416 2
9417 2
9418 2
9419 1
9420 2
9421 2
9422 1
9423 1
9424 1
9425 2
9426 1
9427 1
9428 1
9429 1
9430 1
9431 1
9432 2
9433 2
9434 2
9435 2
9436 1
9437 2
9438 2
9439 2
9440 1
9441 1
9442 1
9443 2
9444 2
9445 2
9446 2
9447 2
9448 1
9449 1
9450 2
9451 1
9452 1
9453 1
9454 1
9455 2
9456 1
9457 2
9458 1
9459 2
9460 2
9461 1
9462 2
9463 2
9464 1
9465 2
9466 1
9467 1
9468 2
9469 2
9470 2
9471 2
9472 2
9473 1
9474 2
9475 1
9476 1
9477 1
9478 1
9479 2
9480 1
9481 1
9482 2
9483 2
9484 1
9485 2
9486 1
9487 2
9488 2
9489 1
9490 2
9491 2
9492 2
9493 2
9494 2
9495 1
9496 2
9497 1
9498 2
9499 2
9500 1
9501 2
9502 1
9503 1
9504 1
9505 2
9506 2
9507 2
9508 2
9509 2
9510 1
9511 2
9512 2
9513 1
9514 2
9515 1
9516 1
9517 1
9518 2
9519 1
9520 1
9521 2
9522 2
9523 1
9524 2
9525 1
9526 1
9527 1
9528 2
9529 2
9530 2
9531 2
9532 2
9533 2
9534 1
9535 2
9536 1
9537 2
9538 1
9539 2
9540 2
9541 2
9542 2
9543 2
9544 1
9545 2
9546 2
9547 1
9548 2
9549 2
9550 2
9551 2
9552 2
9553 2
9554 2
9555 1
9556 1
9557 1
9558 2
9559 2
9560 1
9561 2
9562 2
9563 1
9564 1
9565 1
9566 2
9567 1
9568 2
9569 2
9570 1
9571 2
9572 1
9573 1
9574 1
9575 1
9576 1
9577 2
9578 2
9579 1
9580 1
9581 1
9582 2
9583 1
9584 2
9585 2
9586 1
9587 2
9588 2
9589 2
9590 2
9591 2
9592 2
9593 1
9594 2
9595 2
9596 1
9597 2
9598 1
9599 2
9600 2
9601 2
9602 2
9603 1
9604 2
9605 1
9606 1
9607 2
9608 1
9609 2
9610 1
9611 2
9612 2
9613 2
9614 1
9615 1
9616 2
9617 2
9618 2
9619 1
9620 2
9621 2
9622 2
9623 2
9624 2
9625 1
9626 2
9627 2
9628 2
9629 2
9630 2
9631 1
9632 1
9633 1
9634 1
9635 1
9636 2
9637 2
9638 2
9639 1
9640 2
9641 2
9642 2
9643 2
9644 2
9645 2
9646 2
9647 2
9648 1
9649 2
9650 2
9651 1
9652 2
9653 2
9654 2
9655 1
9656 2
9657 1
9658 2
9659 1
9660 2
9661 2
9662 1
9663 2
9664 1
9665 2
9666 1
9667 1
9668 2
9669 1
9670 1
9671 1
9672 2
9673 1
9674 1
9675 1
9676 2
9677 2
9678 2
9679 2
9680 1
9681 2
9682 1
9683 1
9684 1
9685 2
9686 2
9687 1
9688 1
9689 2
9690 2
9691 2
9692 2
9693 2
9694 1
9695 1
9696 1
9697 2
9698 1
9699 2
9700 2
9701 2
9702 2
9703 1
9704 1
9705 2
9706 1
9707 2
9708 2
9709 1
9710 1
9711 1
9712 2
9713 2
9714 2
9715 2
9716 2
9717 2
9718 1
9719 1
9720 1
9721 1
9722 2
9723 1
9724 2
9725 2
9726 2
9727 1
9728 2
9729 1
9730 2
9731 2
9732 2
9733 1
9734 2
9735 1
9736 2
9737 1
9738 2
9739 1
9740 1
9741 1
9742 2
9743 2
9744 2
9745 2
9746 1
9747 1
9748 2
9749 2
9750 1
9751 2
9752 1
9753 1
9754 2
9755 2
9756 2
9757 1
9758 2
9759 2
9760 2
9761 2
9762 2
9763 2
9764 2
9765 1
9766 2
9767 2
9768 2
9769 1
9770 2
9771 1
9772 2
9773 1
9774 2
9775 2
9776 2
9777 1
9778 1
9779 2
9780 2
9781 1
9782 2
9783 2
9784 2
9785 2
9786 2
9787 1
9788 1
9789 1
9790 2
9791 1
9792 1
9793 1
9794 2
9795 1
9796 2
9797 1
9798 2
9799 2
9800 2
9801 2
9802 2
9803 1
9804 1
9805 2
9806 2
9807 1
9808 2
9809 1
9810 1
9811 2
9812 1
9813 2
9814 1
9815 1
9816 1
9817 2
9818 2
9819 1
9820 1
9821 2
9822 2
9823 1
9824 2
9825 1
9826 1
9827 1
9828 2
9829 2
9830 2
9831 2
9832 1
9833 2
9834 1
9835 2
9836 2
9837 2
9838 1
9839 2
9840 1
9841 1
9842 2
9843 2
9844 2
9845 1
9846 2
9847 1
9848 2
9849 2
9850 1
9851 2
9852 1
9853 1
9854 1
9855 2
9856 2
9857 2
9858 2
9859 1
9860 1
9861 1
9862 1
9863 1
9864 1
9865 1
9866 2
9867 1
9868 2
9869 2
9870 2
9871 2
9872 2
9873 2
9874 1
9875 2
9876 2
9877 2
9878 1
9879 2
9880 2
9881 1
9882 2
9883 2
9884 2
9885 2
9886 1
9887 2
9888 2
9889 1
9890 1
9891 2
9892 1
9893 2
9894 2
9895 1
9896 2
9897 1
9898 2
9899 2
9900 0
9901 1
9902 2
9903 1
9904 2
9905 2
9906 2
9907 2
9908 2
9909 1
9910 1
9911 2
9912 1
9913 2
9914 1
9915 2
9916 1
9917 2
9918 2
9919 2
9920 1
9921 1
9922 1
9923 2
9924 2
9925 1
9926 2
9927 1
9928 1
9929 1
9930 2
9931 1
9932 2
9933 2
9934 2
9935 1
9936 1
9937 1
9938 2
9939 2
9940 1
9941 2
9942 2
9943 2
9944 2
9945 1
9946 2
9947 1
9948 2
9949 2
9950 1
9951 2
9952 2
9953 1
9954 2
9955 1
9956 2
9957 2
9958 1
9959 2
9960 2
9961 2
9962 2
9963 2
9964 1
9965 1
9966 2
9967 2
9968 1
9969 2
9970 2
9971 2
9972 1
9973 1
9974 2
9975 1
9976 2
9977 1
9978 2
9979 1
9980 2
9981 1
9982 2
9983 2
9984 1
9985 2
9986 2
9987 2
9988 1
9989 2
9990 1
9991 2
9992 1
9993 2
9994 1
9995 2
9996 2
9997 2
9998 1
9999 1
10000 2
DEMAND_MultiCommodity_SECTION
1 -10.9 -12.4 -3.5 -10.2
2 -7.1 -10.8 -12.5 -8.3
3 52.0 58.9 47.5 31.4
4 -4.3 -10.5 -12.4 -10.6
5 -12.2 -3.9 -12.1 -5.4
6 -5.6 -6.9 -10.1 -10.0
7 49.9 29.9 39.7 45.4
8 26.1 40.9 35.8 29.1
9 -6.0 -9.2 -11.4 -10.9
10 -4.7 -12.0 -6.7 -10.4
11 -9.3 -8.4 -7.2 -6.5
12 25.5 32.5 24.9 20.4
13 34.6 45.4 54.2 56.2
14 54.8 59.2 48.1 35.4
15 -6.2 -7.5 -7.6 -8.8
16 -6.9 -8.6 -9.1 -5.1
17 -4.5 -6.1 -10.6 -3.4
18 27.0 45.1 21.9 22.7
19 -4.7 -6.8 -3.9 -3.7
20 -12.9 -8.0 -11.0 -5.6
21 -5.7 -12.8 -11.2 -8.6
22 -8.1 -4.0 -5.6 -10.1
23 -8.9 -3.3 -11.9 -9.2
24 33.3 43.4 44.1 38.0
25 30.7 52.6 37.6 33.9
26 0.0 0.0 0.0 0.0
27 -3.3 -4.2 -5.5 -3.7
28 -9.1 -6.7 -5.5 -12.2
29 -5.1 -12.8 -6.5 -11.6
30 22.8 43.8 36.2 21.2
31 -3.5 -9.5 -11.8 -8.1
32 35.5 38.1 24.5 53.3
33 -9.4 -7.1 -7.9 -8.2
34 48.2 42.1 42.8 25.5
35 -7.3 -10.6 -10.7 -8.6
36 36.0 50.7 43.9 58.2
37 -9.8 -12.2 -4.3 -7.7
38 -9.7 -11.4 -4.1 -8.8
39 -7.2 -12.7 -11.9 -3.6
40 -9.2 -12.8 -5.1 -7.2
41 -11.6 -8.3 -10.5 -7.7
42 -10.2 -11.9 -12.3 -7.7
43 38.4 28.9 55.0 25.2
44 32.8 50.8 44.9 30.2
45 -12.0 -10.7 -8.4 -3.7
46 -7.4 -9.2 -9.4 -12.6
47 -3.6 -3.5 -12.2 -12.1
48 -9.5 -9.3 -7.5 -12.3
49 43.3 53.8 51.6 44.3
50 49.4 33.6 51.7 43.9
51 -4.9 -10.9 -3.8 -12.0
52 42.5 46.4 29.2 39.8
53 -8.6 -9.1 -4.6 -6.7
54 -8.3 -5.0 -5.2 -10.4
55 -3.5 -4.2 -8.2 -6.3
56 -5.8 -12.0 -5.8 -4.8
57 -4.4 -9.7 -12.3 -5.8
58 24.5 55.2 55.7 57.3
59 -7.2 -6.9 -11.1 -6.3
60 -10.2 -6.1 -11.9 -11.5
61 0.0 0.0 0.0 0.0
62 -8.3 -6.4 -11.2 -8.6
63 51.8 56.1 58.7 52.5
64 -8.5 -6.6 -10.9 -4.3
65 26.2 34.8 30.8 54.3
66 -6.3 -9.9 -3.3 -11.3
67 -4.6 -8.7 -10.8 -5.9
68 42.5 57.6 53.6 59.6
69 39.2 36.8 21.7 20.5
70 -6.0 -9.4 -9.9 -7.0
71 -4.8 -9.1 -5.8 -11.6
72 -8.3 -10.2 -8.8 -5.5
73 -8.7 -4.7 -8.1 -4.8
74 -8.2 -6.7 -3.3 -4.3
75 -3.7 -4.4 -11.5 -4.4
76 59.5 54.4 54.5 36.0
77 -6.4 -7.7 -10.8 -10.5
78 -5.9 -4.7 -9.2 -10.5
79 -4.0 -5.5 -8.4 -5.7
80 50.5 32.6 21.6 27.1
81 -11.4 -9.8 -5.5 -11.6
82 53.4 44.2 29.8 44.4
83 44.7 24.1 26.7 54.6
84 -10.2 -4.8 -11.6 -12.0
85 -12.9 -10.8 -8.4 -3.8
86 -7.8 -6.0 -12.2 -4.4
87 -3.4 -4.0 -9.2 -7.0
88 -6.8 -6.8 -9.2 -7.7
89 51.7 50.2 59.6 57.3
90 -9.2 -10.6 -6.0 -6.1
91 -8.9 -3.7 -7.4 -6.2
92 -3.8 -6.1 -8.9 -10.7
93 43.2 36.8 53.4 58.0
94 -12.1 -9.5 -11.3 -12.3
95 -6.5 -4.4 -5.9 -3.9
96 -4.8 -10.9 -11.0 -12.4
97 57.0 43.1 21.5 39.4
98 -4.2 -10.1 -4.1 -4.4
99 29.6 25.0 53.9 33.0
100 -4.5 -11.7 -6.5 -4.4
101 0.0 0.0 0.0 0.0
102 28.4 47.0 50.8 23.0
103 -12.8 -6.4 -10.2 -3.4
104 -4.0 -11.9 -9.1 -11.4
105 -4.0 -7.4 -10.7 -11.6
106 24.9 23.9 42.9 40.5
107 -4.6 -9.7 -6.7 -3.5
108 50.6 23.4 25.7 48.5
109 -8.1 -9.2 -10.7 -6.6
110 44.3 41.5 25.5 32.0
111 22.2 32.6 41.8 45.1
112 44.4 49.2 33.6 54.5
113 -3.5 -9.4 -3.5 -12.5
114 -12.5 -6.1 -9.1 -11.2
115 32.0 21.3 26.9 54.8
116 -10.8 -8.7 -6.4 -12.7
117 -8.9 -6.4 -5.6 -4.5
118 47.7 47.0 22.5 55.6
119 23.6 22.5 49.3 59.5
120 -10.2 -10.3 -5.4 -10.5
121 -3.3 -12.5 -11.6 -9.9
122 -5.8 -4.9 -4.1 -10.5
123 57.2 28.5 28.8 30.1
124 42.3 43.7 33.7 22.1
125 -7.7 -9.2 -5.4 -5.3
126 -7.8 -5.4 -7.3 -6.0
127 -11.4 -8.6 -5.9 -6.1
128 59.2 25.2 40.4 41.1
129 -4.3 -12.0 -10.6 -8.2
130 -7.5 -10.7 -4.4 -8.7
131 47.8 39.9 31.0 33.5
132 -7.8 -5.4 -6.5 -4.9
133 -3.5 -4.9 -9.4 -8.0
134 -11.0 -9.0 -12.7 -5.8
135 -8.2 -11.8 -10.7 -10.1
136 -12.4 -6.6 -10.8 -10.7
137 -6.3 -9.7 -5.8 -4.9
138 38.5 52.7 43.9 21.6
139 -12.9 -5.0 -11.7 -7.7
140 -6.2 -9.1 -12.0 -10.7
141 -3.3 -10.8 -8.2 -8.5
142 -12.0 -12.1 -5.9 -3.5
143 25.3 54.6 26.6 55.2
144 -11.5 -6.7 -4.5 -8.7
145 -10.4 -11.7 -3.7 -7.7
146 -3.4 -3.7 -4.8 -5.4
147 56.6 50.1 25.1 28.0
148 22.1 21.3 50.6 48.3
149 -5.8 -9.9 -5.9 -12.4
150 -4.6 -4.3 -4.5 -9.5
151 -7.0 -9.3 -10.2 -9.0
152 28.1 28.0 21.6 39.5
153 -5.5 -7.6 -3.9 -12.1
154 -7.7 -3.6 -7.7 -3.7
155 -12.8 -11.3 -5.5 -8.4
156 42.3 27.0 28.1 46.9
157 -5.4 -12.3 -8.0 -11.2
158 -12.9 -6.1 -9.1 -3.5
159 46.6 40.9 29.3 40.3
160 -3.5 -5.3 -10.7 -9.5
161 -9.0 -4.0 -9.1 -4.6
162 50.2 54.0 53.5 24.1
163 -12.6 -4.8 -12.0 -7.4
164 -8.3 -5.0 -7.5 -9.8
165 -8.1 -7.6 -3.7 -3.2
166 52.9 54.9 54.4 21.7
167 -6.3 -3.6 -12.5 -5.2
168 -6.6 -6.0 -8.6 -4.2
169 -4.8 -9.7 -4.7 -9.4
170 -10.3 -11.2 -3.4 -11.0
171 50.0 48.2 57.3 45.9
172 -11.8 -6.1 -3.8 -9.0
173 22.4 51.8 24.8 41.3
174 -10.2 -7.0 -7.8 -7.1
175 21.1 36.8 43.1 58.3
176 49.0 22.0 52.1 52.6
177 39.0 48.6 58.9 52.0
178 35.4 46.9 23.3 30.9
179 -4.9 -11.9 -3.7 -9.0
180 -7.9 -9.6 -9.3 -9.6
181 20.5 27.3 23.3 42.4
182 27.0 29.0 47.8 25.0
183 -7.3 -9.7 -4.1 -9.4
184 -8.1 -12.8 -10.7 -5.6
185 -7.3 -7.5 -10.8 -3.9
186 -8.4 -3.4 -8.3 -9.8
187 45.6 59.4 45.3 44.9
188 34.2 20.2 39.1 55.6
189 44.1 54.6 43.2 52.6
190 -5.7 -12.4 -7.1 -7.7
191 -8.1 -6.6 -9.4 -10.9
192 27.5 56.8 38.9 23.7
193 -5.1 -3.3 -10.7 -7.7
194 -8.1 -9.5 -12.1 -3.5
195 -4.8 -12.8 -4.4 -5.1
196 47.3 27.6 25.4 25.5
197 -10.7 -10.3 -6.5 -8.0
198 55.6 27.7 49.6 26.4
199 44.9 49.8 49.6 30.9
200 42.8 47.3 34.4 42.3
201 -3.6 -4.9 -7.8 -5.2
202 53.1 42.8 29.9 46.1
203 -8.4 -8.9 -10.9 -12.6
204 -11.1 -3.5 -4.8 -8.7
205 -9.3 -11.7 -12.7 -3.2
206 43.0 33.5 52.5 51.6
207 46.3 21.1 42.6 32.0
208 55.5 41.4 30.3 48.5
209 -6.2 -5.1 -10.9 -4.6
210 -11.8 -7.9 -11.8 -4.9
211 -9.9 -10.0 -10.2 -3.7
212 -8.8 -11.3 -11.2 -12.2
213 -7.2 -5.8 -5.8 -8.9
214 37.7 21.2 27.2 27.2
215 -7.9 -5.8 -7.0 -7.0
216 -12.6 -5.7 -6.4 -12.5
217 -6.9 -6.3 -4.6 -9.1
218 -7.6 -11.1 -11.1 -9.3
219 41.9 54.0 31.4 51.7
220 -9.7 -9.4 -7.5 -5.4
221 -10.4 -6.4 -5.9 -11.7
222 0.0 0.0 0.0 0.0
223 -5.0 -3.4 -5.8 -3.2
224 -4.3 -6.9 -4.5 -7.6
225 -12.8 -7.2 -12.1 -4.6
226 -8.5 -7.3 -8.3 -3.3
227 -12.5 -11.6 -11.1 -8.2
228 -8.0 -3.9 -5.9 -10.2
229 22.7 46.1 32.7 28.9
230 37.1 38.4 50.9 59.3
231 43.6 56.1 48.8 48.9
232 -7.5 -10.4 -10.5 -7.7
233 -8.1 -10.2 -12.8 -4.6
234 50.5 23.9 50.3 43.6
235 -8.5 -10.0 -6.1 -12.5
236 -4.8 -8.6 -5.9 -8.2
237 29.4 40.7 37.5 38.0
238 -5.5 -5.6 -3.3 -7.4
239 -5.7 -8.7 -4.6 -3.5
240 -7.2 -3.4 -4.9 -8.7
241 43.1 47.7 31.1 57.3
242 35.0 31.3 47.8 25.3
243 -8.2 -5.7 -7.6 -12.4
244 -7.7 -4.7 -3.4 -9.0
245 -6.8 -9.0 -11.1 -7.0
246 -9.1 -3.7 -5.9 -6.9
247 -11.5 -12.5 -7.4 -11.3
248 -8.5 -9.8 -7.3 -10.8
249 -3.9 -4.4 -8.8 -12.1
250 -6.0 -10.5 -12.3 -7.4
251 -11.1 -5.6 -5.1 -11.9
252 -8.7 -4.0 -5.1 -10.7
253 -12.8 -8.5 -3.6 -9.2
254 50.7 55.5 46.7 39.6
255 -12.6 -5.6 -9.5 -4.5
256 25.8 39.5 55.5 37.0
257 -6.4 -4.5 -5.4 -7.5
258 -5.5 -8.3 -3.8 -5.2
259 25.5 46.3 28.9 50.7
260 51.2 44.1 27.1 54.8
261 -12.0 -10.7 -7.9 -5.1
262 -10.3 -6.4 -8.4 -5.9
263 44.5 47.2 38.8 49.3
264 40.8 52.4 32.1 52.2
265 25.0 23.8 31.8 50.1
266 -8.5 -11.7 -10.1 -6.9
267 -4.0 -6.7 -7.8 -11.8
268 -9.9 -10.4 -8.9 -8.0
269 55.5 48.6 28.6 30.9
270 -11.0 -12.0 -6.8 -12.3
271 -10.5 -7.0 -4.3 -9.0
272 -12.3 -12.0 -8.5 -12.3
273 -4.0 -6.8 -6.1 -7.5
274 -4.3 -8.0 -4.7 -6.8
275 -5.3 -3.7 -7.4 -12.7
276 -5.8 -5.3 -9.3 -3.9
277 -9.1 -8.9 -3.7 -7.1
278 -10.6 -10.0 -8.1 -6.5
279 27.7 35.0 38.0 20.8
280 -8.3 -12.1 -7.4 -10.2
281 23.6 28.4 24.2 23.4
282 41.0 32.5 30.9 21.2
283 -8.6 -9.5 -8.8 -10.6
284 42.3 50.1 54.2 43.9
285 58.3 37.0 31.4 53.6
286 -10.2 -4.5 -11.3 -11.9
287 59.0 53.0 25.2 48.6
288 -6.4 -8.8 -9.1 -7.4
289 -6.3 -8.7 -4.1 -7.9
290 -6.2 -8.0 -4.9 -11.4
291 -5.9 -7.7 -11.0 -4.2
292 -8.8 -9.2 -7.1 -7.5
293 44.6 35.5 57.5 56.1
294 31.3 57.9 40.2 30.9
295 47.2 45.1 48.5 36.4
296 56.9 48.8 41.0 47.4
297 52.1 59.3 58.8 44.8
298 27.4 57.5 51.5 42.4
299 -8.4 -8.2 -9.2 -10.9
300 -3.8 -9.2 -10.5 -4.0
301 -5.0 -5.6 -10.5 -4.4
302 29.7 34.8 51.6 31.0
303 21.4 43.3 54.5 20.3
304 35.1 50.1 58.7 31.1
305 44.9 21.2 40.2 26.9
306 -4.9 -5.0 -12.0 -6.3
307 -11.4 -11.7 -3.5 -6.5
308 56.8 49.7 50.2 39.1
309 47.9 58.0 41.3 52.3
310 -6.0 -10.4 -6.4 -8.6
311 -9.0 -9.1 -7.1 -11.9
312 -9.5 -3.5 -6.0 -12.5
313 -8.7 -8.0 -11.6 -11.7
314 -10.8 -12.6 -9.5 -9.6
315 -11.0 -10.0 -9.0 -4.4
316 -8.3 -3.2 -9.3 -7.9
317 32.4 32.4 51.2 22.4
318 0.0 0.0 0.0 0.0
319 -5.6 -5.2 -4.7 -7.2
320 21.1 32.9 44.2 21.7
321 22.9 28.9 26.0 42.5
322 -7.5 -12.8 -3.9 -12.5
323 -8.9 -3.8 -4.6 -10.8
324 56.6 43.8 48.7 47.9
325 -8.1 -3.7 -9.2 -4.9
326 -12.6 -4.9 -9.4 -5.5
327 -9.2 -6.8 -6.7 -6.8
328 38.5 42.3 40.7 55.9
329 46.9 25.1 54.7 48.6
330 -7.5 -6.3 -9.8 -3.4
331 36.7 39.6 21.8 52.5
332 -11.5 -4.9 -11.1 -11.6
333 43.4 49.7 52.8 47.3
334 30.3 36.7 25.4 51.4
335 -12.5 -5.8 -11.6 -10.4
336 -10.4 -7.5 -11.4 -11.9
337 -5.9 -4.0 -5.3 -10.4
338 -10.9 -5.9 -7.2 -7.1
339 55.7 34.1 31.0 32.6
340 23.4 38.1 36.2 24.2
341 -5.5 -6.0 -10.2 -9.2
342 -7.7 -7.3 -10.9 -10.4
343 34.7 23.1 34.9 25.3
344 33.7 39.3 57.0 48.4
345 -7.4 -5.0 -5.8 -5.1
346 29.3 25.6 27.7 45.8
347 -6.6 -8.9 -9.4 -8.3
348 -3.9 -6.8 -10.4 -3.4
349 -9.4 -7.7 -7.0 -3.8
350 -12.4 -10.4 -12.1 -10.1
351 38.7 39.1 55.1 21.0
352 -11.4 -12.3 -4.2 -7.8
353 -12.7 -10.2 -6.5 -9.4
354 45.0 41.7 34.9 39.1
355 -8.4 -9.0 -10.2 -12.3
356 35.4 35.7 50.7 44.8
357 -6.2 -6.9 -8.6 -7.6
358 -11.1 -4.0 -9.0 -4.3
359 55.1 27.0 20.5 40.2
360 -10.5 -7.9 -5.6 -7.6
361 38.9 57.5 42.0 29.1
362 59.6 37.2 35.0 34.8
363 35.3 46.4 51.3 44.2
364 -10.3 -10.5 -6.5 -8.4
365 -8.2 -5.7 -6.8 -6.4
366 23.9 22.2 42.1 49.1
367 -11.7 -3.6 -9.3 -12.2
368 23.3 51.9 34.6 46.4
369 -10.4 -9.1 -6.0 -9.0
370 43.2 26.9 28.0 57.8
371 55.6 29.5 57.3 42.7
372 -12.4 -6.6 -4.9 -10.1
373 51.8 58.1 21.9 41.5
374 -7.3 -7.9 -7.5 -5.5
375 47.8 26.5 27.8 30.2
376 41.7 58.4 51.9 31.5
377 51.3 52.4 48.0 49.2
378 35.1 48.5 35.7 28.2
379 -12.6 -8.7 -10.2 -6.0
380 58.4 54.8 59.7 31.5
381 -10.8 -11.0 -10.3 -6.3
382 -4.1 -4.5 -7.7 -11.5
383 -6.4 -11.1 -9.0 -7.4
384 54.7 48.3 35.4 44.7
385 -11.9 -3.4 -11.1 -8.3
386 -11.1 -10.0 -8.7 -10.8
387 29.9 33.5 20.5 40.9
388 -3.3 -6.5 -5.6 -8.2
389 -5.9 -8.5 -12.7 -3.9
390 32.8 38.8 23.5 33.6
391 39.8 46.3 56.0 51.4
392 -6.3 -9.9 -7.2 -8.4
393 58.0 50.8 42.2 42.5
394 -6.5 -3.9 -9.1 -7.6
395 31.4 36.3 58.4 47.9
396 -5.4 -5.7 -9.1 -5.3
397 -9.3 -6.9 -9.6 -3.6
398 -12.9 -7.0 -7.2 -8.8
399 37.9 22.9 27.4 43.1
400 44.3 24.2 29.9 40.3
401 -9.0 -12.4 -9.7 -8.4
402 -8.2 -9.4 -11.4 -8.2
403 40.1 52.3 22.5 29.6
404 46.1 24.6 45.0 20.7
405 -4.5 -6.3 -11.1 -11.2
406 -6.6 -10.9 -9.3 -7.4
407 41.4 26.2 38.2 34.2
408 -5.6 -10.2 -10.0 -8.2
409 51.7 39.6 31.6 27.9
410 -5.9 -5.3 -5.5 -8.9
411 -12.7 -10.4 -3.6 -4.8
412 -3.3 -6.0 -3.7 -4.9
413 -5.8 -7.3 -5.1 -8.3
414 -4.6 -6.9 -10.9 -5.8
415 22.5 22.7 59.3 29.4
416 -9.5 -7.9 -5.3 -4.2
417 -6.6 -6.2 -3.5 -9.4
418 -9.5 -3.9 -11.1 -11.9
419 42.0 47.8 24.3 25.0
420 -7.7 -9.5 -11.3 -12.2
421 -10.3 -9.8 -3.6 -5.3
422 -9.8 -7.9 -10.0 -4.6
423 32.6 29.3 40.2 37.4
424 -10.0 -5.2 -4.8 -4.0
425 -8.8 -7.6 -10.2 -9.1
426 -6.3 -11.0 -3.6 -9.5
427 -5.6 -4.0 -11.2 -9.1
428 46.6 29.6 28.7 35.7
429 -9.2 -10.8 -10.1 -8.7
430 57.1 30.6 42.6 54.2
431 38.8 26.5 49.3 39.1
432 -8.4 -6.4 -10.1 -7.8
433 -11.5 -5.0 -6.0 -4.3
434 -7.4 -11.4 -5.3 -10.4
435 -12.4 -3.6 -9.0 -5.7
436 -10.2 -8.2 -4.4 -10.6
437 -4.7 -5.1 -5.7 -3.5
438 -9.7 -5.6 -12.7 -3.6
439 -4.3 -10.6 -5.2 -6.8
440 47.8 56.7 54.7 50.2
441 -10.2 -5.7 -8.8 -8.6
442 46.8 58.6 38.6 44.2
443 -6.9 -3.3 -12.6 -7.7
444 52.1 45.9 32.4 27.3
445 -7.4 -10.3 -9.6 -9.7
446 -6.0 -8.1 -10.7 -12.3
447 -12.5 -12.5 -3.8 -8.9
448 -9.6 -7.8 -11.8 -5.8
449 52.5 30.3 41.5 26.4
450 -11.3 -8.7 -5.7 -4.7
451 -9.7 -11.2 -9.7 -12.6
452 -9.8 -10.6 -6.6 -4.1
453 -6.7 -12.7 -11.9 -9.6
454 -7.3 -9.3 -8.8 -4.2
455 -10.5 -5.1 -5.1 -7.4
456 57.7 33.9 23.6 48.8
457 -5.2 -7.6 -6.3 -5.9
458 -9.2 -11.4 -8.0 -10.6
459 40.1 48.5 43.1 40.4
460 -9.2 -7.1 -5.4 -6.3
461 -12.1 -3.8 -10.3 -8.1
462 -12.9 -7.9 -3.2 -9.2
463 -10.9 -12.8 -9.4 -9.9
464 -11.9 -10.3 -9.8 -5.0
465 34.4 22.9 37.1 27.1
466 -7.8 -4.1 -5.6 -12.5
467 -11.5 -11.0 -3.3 -11.4
468 -10.8 -9.2 -5.7 -9.5
469 26.1 31.7 30.7 23.3
470 -12.7 -6.0 -6.0 -8.9
471 44.3 48.1 24.3 32.0
472 -8.6 -10.0 -6.3 -3.7
473 -12.5 -3.3 -5.7 -4.8
474 -5.4 -6.0 -5.6 -4.4
475 -9.8 -11.4 -10.0 -8.8
476 -5.0 -9.2 -12.3 -12.7
477 -7.8 -6.5 -6.4 -4.3
478 -8.9 -6.5 -12.6 -7.0
479 34.6 48.3 45.8 23.5
480 -12.2 -3.5 -9.9 -6.1
481 -9.4 -7.4 -9.9 -7.4
482 50.0 51.5 40.1 57.4
483 -11.4 -7.6 -11.1 -3.2
484 -4.4 -9.0 -10.0 -4.1
485 38.6 39.8 51.6 53.8
486 43.4 29.3 58.1 40.9
487 44.2 45.8 32.5 51.1
488 -4.8 -8.6 -7.8 -12.1
489 -4.6 -8.6 -10.0 -6.8
490 -4.9 -8.1 -5.2 -6.1
491 59.5 49.3 23.5 51.0
492 -11.6 -5.5 -4.0 -7.4
493 0.0 0.0 0.0 0.0
494 -9.1 -4.4 -6.7 -7.9
495 -10.6 -4.3 -4.9 -6.4
496 -12.2 -4.8 -5.1 -4.9
497 -5.3 -10.3 -11.3 -8.5
498 -4.7 -6.2 -11.2 -8.9
499 -6.1 -5.3 -12.0 -4.6
500 -3.8 -6.7 -12.2 -9.9
501 -8.4 -7.7 -5.9 -12.6
502 24.7 45.1 29.5 27.3
503 -4.1 -8.2 -12.5 -7.0
504 48.3 36.5 31.8 29.1
505 29.7 26.7 27.9 29.5
506 -10.7 -6.8 -9.0 -4.3
507 -12.8 -10.9 -5.9 -7.6
508 57.1 35.9 56.6 28.2
509 27.7 33.2 28.6 34.0
510 -6.5 -11.3 -8.9 -6.0
511 -8.7 -12.6 -6.3 -8.0
512 25.9 50.3 41.5 39.2
513 51.5 46.1 31.7 31.4
514 29.5 42.2 56.3 51.4
515 45.1 32.8 27.5 29.2
516 42.3 41.2 57.9 35.6
517 -4.3 -8.0 -5.4 -9.0
518 -4.6 -11.1 -10.1 -12.3
519 -7.0 -8.1 -6.6 -10.6
520 38.0 53.3 57.8 56.0
521 -5.0 -10.7 -4.5 -6.3
522 -5.3 -12.0 -11.3 -5.6
523 -10.0 -5.7 -8.8 -4.7
524 -5.5 -8.4 -9.3 -8.7
525 -7.2 -4.9 -4.8 -12.5
526 0.0 0.0 0.0 0.0
527 -7.0 -12.8 -8.4 -11.2
528 -7.6 -6.7 -3.3 -4.6
529 -11.5 -11.4 -10.2 -9.9
530 49.6 53.1 59.3 52.4
531 55.6 43.0 56.3 26.9
532 -4.8 -7.2 -10.0 -5.3
533 -5.1 -8.3 -11.3 -5.6
534 -5.6 -3.3 -5.2 -9.5
535 -9.1 -4.5 -11.7 -11.6
536 -10.4 -8.0 -9.4 -5.6
537 -4.9 -5.6 -7.5 -5.2
538 -8.3 -4.7 -4.5 -9.0
539 30.7 46.5 21.1 31.3
540 -6.7 -11.7 -7.2 -11.0
541 28.2 52.8 22.4 27.2
542 -4.7 -11.4 -11.2 -6.7
543 -5.6 -9.6 -8.9 -9.1
544 -5.7 -7.5 -10.1 -7.6
545 -8.2 -5.2 -8.2 -8.8
546 -7.1 -9.8 -11.0 -4.5
547 -7.4 -5.5 -5.3 -7.7
548 41.5 35.3 44.8 23.4
549 -10.9 -12.6 -12.0 -3.7
550 -7.9 -6.1 -12.0 -5.8
551 -5.3 -8.5 -5.4 -6.4
552 53.5 48.6 42.6 51.8
553 54.9 54.6 27.4 22.1
554 -9.7 -7.5 -5.7 -12.5
555 34.3 21.6 51.5 25.0
556 -8.9 -7.4 -9.0 -3.3
557 -11.5 -5.9 -10.2 -3.5
558 -8.9 -12.7 -11.1 -4.6
559 -8.0 -12.5 -3.5 -7.4
560 -12.0 -3.4 -9.9 -5.7
561 -3.5 -7.2 -12.7 -9.1
562 24.4 42.1 30.4 46.1
563 23.0 39.3 36.7 20.2
564 -7.5 -9.8 -11.2 -12.1
565 -8.2 -11.2 -8.3 -8.8
566 38.7 39.0 58.5 47.9
567 -7.2 -12.1 -11.6 -12.4
568 -7.5 -7.0 -11.8 -5.6
569 30.8 51.4 59.7 33.2
570 -7.5 -12.6 -7.1 -10.9
571 45.9 56.8 48.1 20.6
572 -4.0 -10.7 -11.9 -12.3
573 55.9 44.5 39.2 36.3
574 -11.3 -6.3 -10.0 -12.1
575 -6.9 -10.0 -4.2 -11.1
576 48.6 26.4 47.6 58.3
577 -10.9 -7.2 -4.4 -6.5
578 -4.3 -6.6 -9.1 -10.0
579 -4.3 -11.7 -9.9 -5.8
580 -4.6 -12.5 -11.5 -10.2
581 37.1 58.3 35.1 32.9
582 30.8 23.2 42.9 28.2
583 49.9 42.5 20.4 26.6
584 -11.2 -6.8 -12.2 -5.6
585 50.6 26.9 24.8 21.0
586 -12.0 -6.0 -6.6 -4.2
587 -4.4 -5.4 -9.6 -9.0
588 -8.6 -10.1 -7.0 -10.1
589 -9.1 -11.1 -12.7 -3.5
590 -12.5 -11.6 -11.6 -8.9
591 -10.3 -6.7 -9.1 -7.8
592 22.1 37.4 47.0 42.5
593 34.1 25.8 24.9 58.1
594 55.7 44.4 42.5 52.9
595 -9.9 -11.0 -10.2 -4.7
596 -7.2 -10.7 -3.8 -6.1
597 41.4 32.8 21.0 54.8
598 -5.1 -3.9 -10.6 -5.6
599 -9.9 -8.0 -6.1 -10.7
600 -11.1 -4.7 -8.0 -9.7
601 48.1 39.6 20.1 31.7
602 59.1 32.0 21.4 47.0
603 -10.0 -4.0 -11.1 -5.1
604 31.6 34.6 30.5 26.5
605 0.0 0.0 0.0 0.0
606 -3.3 -9.7 -8.4 -6.7
607 -8.0 -6.0 -5.9 -12.2
608 -7.5 -11.3 -8.1 -9.6
609 -8.8 -12.0 -10.4 -7.5
610 -7.2 -6.2 -11.0 -7.7
611 -10.6 -10.5 -3.8 -4.8
612 -9.1 -12.2 -9.9 -7.9
613 -10.6 -12.3 -11.8 -3.4
614 -10.1 -7.8 -4.7 -10.2
615 -8.6 -6.0 -4.3 -6.9
616 -8.0 -11.0 -4.9 -8.9
617 -6.5 -10.6 -11.0 -12.7
618 46.0 25.5 24.0 43.8
619 -10.1 -6.0 -4.7 -12.0
620 -11.4 -5.6 -5.9 -7.9
621 -11.8 -8.2 -6.2 -5.3
622 51.1 46.7 59.2 50.4
623 50.3 59.8 39.5 28.3
624 44.2 48.5 39.5 36.7
625 -6.8 -8.7 -9.7 -6.4
626 51.4 38.0 36.1 35.4
627 -5.9 -8.6 -12.2 -3.3
628 -8.5 -6.1 -11.1 -3.3
629 53.6 45.5 31.5 47.9
630 44.4 22.1 39.1 31.6
631 43.5 32.4 46.2 29.5
632 -4.2 -5.8 -5.2 -11.5
633 -11.2 -9.4 -7.8 -3.3
634 -9.8 -6.6 -8.8 -11.6
635 -6.5 -11.4 -7.2 -8.7
636 25.6 27.3 43.6 38.7
637 51.7 24.9 35.7 52.2
638 -9.3 -9.7 -8.4 -10.2
639 -7.3 -10.4 -6.3 -7.5
640 23.4 53.2 30.5 24.6
641 -12.4 -9.6 -8.3 -11.5
642 -9.5 -8.0 -4.6 -3.9
643 -8.8 -12.1 -3.3 -3.8
644 -7.3 -7.5 -3.6 -10.9
645 -9.9 -6.0 -10.2 -8.5
646 -12.1 -9.0 -5.9 -11.4
647 28.4 29.4 53.1 57.7
648 -5.0 -12.2 -6.8 -4.9
649 -11.4 -11.2 -4.7 -7.7
650 -8.1 -3.3 -12.4 -7.2
651 32.7 48.5 53.6 23.8
652 21.7 47.2 54.7 44.9
653 -5.4 -6.0 -4.4 -7.0
654 -12.0 -10.8 -6.8 -5.1
655 -10.8 -12.1 -8.8 -6.1
656 -5.2 -12.3 -7.0 -9.5
657 35.0 49.0 48.2 32.7
658 -7.3 -9.9 -5.5 -4.3
659 -8.3 -11.5 -12.6 -4.1
660 -4.8 -9.7 -7.9 -10.1
661 22.1 32.8 53.3 23.3
662 55.6 57.5 25.3 34.2
663 -8.1 -8.8 -12.2 -4.1
664 -11.3 -12.8 -11.5 -4.6
665 -11.6 -4.7 -10.1 -4.9
666 45.0 33.1 50.0 23.0
667 54.5 38.8 43.1 21.5
668 -3.8 -6.8 -9.0 -3.6
669 -12.7 -10.3 -8.0 -9.5
670 46.7 54.0 20.7 42.8
671 -6.3 -6.6 -11.1 -6.5
672 -6.9 -3.4 -5.5 -11.1
673 45.5 44.4 53.8 53.3
674 -7.9 -6.4 -10.2 -7.0
675 24.7 33.3 27.4 23.8
676 -9.7 -7.5 -11.0 -7.2
677 -7.5 -6.3 -8.2 -4.1
678 -4.4 -12.4 -9.9 -9.9
679 -8.8 -7.8 -9.7 -8.9
680 49.4 56.7 45.7 54.2
681 -10.2 -11.1 -7.0 -5.7
682 27.1 46.2 57.1 25.9
683 -7.1 -4.8 -6.1 -6.5
684 21.1 36.1 57.6 23.6
685 57.0 37.5 20.5 22.4
686 -7.5 -12.0 -3.7 -4.7
687 49.0 26.7 25.2 33.7
688 -11.2 -5.6 -12.6 -10.3
689 49.5 47.2 25.2 41.1
690 30.7 34.5 29.5 43.9
691 54.5 32.8 49.1 29.6
692 -7.2 -8.1 -6.1 -7.0
693 -4.6 -9.5 -4.7 -12.0
694 -4.5 -6.1 -4.3 -7.9
695 -6.5 -7.1 -4.8 -3.4
696 -4.6 -10.0 -8.6 -8.3
697 56.0 40.8 27.1 51.2
698 -10.8 -3.9 -7.6 -12.3
699 -4.2 -3.7 -8.0 -10.1
700 49.2 58.5 37.9 22.1
701 -9.7 -4.6 -11.1 -6.8
702 -8.0 -12.5 -10.0 -12.5
703 -3.8 -10.4 -4.4 -3.7
704 54.8 27.1 36.5 29.1
705 -7.5 -10.6 -10.2 -6.3
706 22.0 33.4 59.0 27.2
707 -10.9 -6.0 -3.3 -7.9
708 -8.0 -8.3 -11.5 -5.6
709 25.4 31.3 51.5 31.4
710 59.9 36.5 41.3 52.2
711 -5.7 -11.1 -6.7 -4.7
712 29.2 32.4 50.6 31.3
713 -11.4 -10.3 -9.4 -6.5
714 48.2 42.2 48.5 51.0
715 49.8 29.1 42.0 34.9
716 -6.5 -4.9 -8.5 -8.2
717 -10.5 -6.2 -5.4 -8.7
718 -7.6 -11.6 -10.9 -8.8
719 -4.9 -12.0 -11.2 -3.5
720 -11.7 -10.3 -8.9 -5.8
721 30.0 25.8 42.0 37.0
722 -8.3 -11.0 -9.3 -11.3
723 55.1 36.8 27.1 34.6
724 40.1 53.4 50.6 39.0
725 57.8 54.6 30.1 24.5
726 38.8 53.5 34.4 22.0
727 -3.5 -5.3 -6.3 -5.9
728 -5.2 -6.1 -11.0 -5.8
729 47.8 20.8 31.9 35.6
730 35.2 24.6 21.1 23.9
731 -7.1 -6.0 -6.7 -4.7
732 -7.8 -6.7 -10.9 -9.1
733 -8.9 -7.3 -8.2 -11.1
734 -3.9 -10.6 -11.4 -9.8
735 -6.7 -8.1 -9.2 -6.3
736 -8.2 -10.3 -3.6 -8.9
737 -8.2 -9.2 -8.9 -3.6
738 -3.5 -12.3 -4.1 -11.9
739 59.5 20.4 44.1 38.0
740 -10.2 -5.1 -6.0 -9.4
741 -7.9 -11.0 -6.7 -3.5
742 -12.8 -3.6 -11.8 -6.1
743 -5.1 -11.4 -5.6 -4.8
744 46.4 24.7 34.3 36.0
745 -8.9 -11.7 -8.6 -3.8
746 35.0 36.2 59.8 41.3
747 -8.4 -11.0 -3.3 -6.2
748 34.5 24.8 45.4 49.4
749 -10.5 -6.6 -10.0 -11.3
750 -3.8 -6.0 -7.5 -8.1
751 35.7 36.6 35.1 44.4
752 46.6 55.8 50.2 46.9
753 -7.9 -5.2 -7.3 -7.7
754 -12.0 -3.5 -9.5 -7.9
755 -4.6 -6.0 -10.2 -12.6
756 -4.7 -4.8 -11.0 -7.9
757 -3.4 -4.0 -11.7 -5.9
758 -10.9 -9.9 -7.3 -7.6
759 -7.0 -12.4 -8.2 -7.4
760 -6.5 -9.5 -6.0 -9.3
761 39.1 25.4 21.6 20.3
762 41.6 50.3 42.5 26.1
763 41.8 33.1 23.8 36.4
764 -4.3 -8.4 -12.2 -9.3
765 -9.7 -4.1 -4.9 -8.1
766 45.2 30.8 45.9 22.5
767 51.7 46.4 53.9 28.4
768 -10.0 -6.6 -11.6 -4.7
769 -6.1 -6.9 -7.7 -7.2
770 -3.6 -9.1 -3.9 -5.6
771 54.2 54.3 42.8 59.3
772 -4.5 -9.9 -6.4 -5.4
773 -3.4 -9.3 -8.3 -7.9
774 39.9 33.4 20.6 42.7
775 -9.4 -4.0 -7.0 -3.4
776 36.6 22.3 36.2 42.4
777 -7.0 -11.5 -4.8 -9.2
778 55.6 22.4 45.4 51.4
779 -5.5 -8.6 -7.5 -11.1
780 -10.2 -8.0 -5.6 -8.4
781 31.8 53.3 23.5 37.9
782 53.5 27.7 40.5 51.5
783 32.6 53.4 39.1 46.8
784 -7.8 -12.3 -7.3 -6.0
785 -10.6 -8.9 -10.6 -9.7
786 -5.5 -6.3 -7.9 -8.2
787 45.3 27.3 53.2 52.0
788 43.8 24.4 20.1 42.3
789 46.9 53.3 27.6 20.4
790 52.8 24.3 27.6 33.3
791 35.0 21.5 50.4 36.3
792 -3.7 -7.0 -4.6 -11.8
793 -11.1 -10.5 -4.5 -5.9
794 -5.4 -12.7 -10.0 -8.7
795 -8.3 -10.3 -7.9 -4.6
796 30.1 58.5 28.0 31.5
797 -11.2 -4.8 -4.0 -4.6
798 -10.5 -8.0 -7.0 -12.5
799 -5.4 -9.9 -12.7 -7.6
800 29.3 54.2 52.3 38.7
801 37.0 42.8 55.7 57.8
802 -9.4 -6.1 -5.0 -12.6
803 -9.3 -4.3 -3.3 -5.1
804 -12.7 -10.7 -7.9 -8.1
805 -6.0 -4.9 -5.5 -10.8
806 -9.0 -5.6 -7.3 -6.6
807 -4.2 -11.7 -7.3 -12.1
808 -12.6 -8.4 -12.8 -7.2
809 -4.0 -5.6 -7.6 -10.4
810 -6.5 -3.2 -9.1 -8.5
811 45.9 38.4 45.9 34.7
812 53.0 45.8 25.7 23.3
813 51.0 48.8 43.5 33.8
814 -4.4 -6.4 -9.8 -6.5
815 -12.4 -4.4 -8.2 -11.1
816 54.4 54.3 34.1 47.0
817 -11.0 -6.3 -8.4 -9.6
818 -6.8 -4.1 -11.4 -8.1
819 -11.1 -5.9 -11.3 -3.6
820 -6.1 -7.9 -7.3 -11.7
821 56.0 42.0 29.7 33.2
822 -8.6 -5.4 -3.5 -9.5
823 43.4 38.1 32.2 28.0
824 44.8 29.1 29.5 54.3
825 -6.2 -9.8 -5.0 -10.8
826 -4.9 -4.6 -4.8 -11.8
827 -11.1 -5.4 -10.9 -4.1
828 -7.2 -12.6 -4.6 -3.7
829 -3.7 -4.9 -8.2 -9.5
830 -5.7 -4.5 -7.8 -6.6
831 57.0 47.6 59.9 33.9
832 -6.3 -6.7 -4.1 -4.8
833 -5.2 -10.2 -6.7 -10.3
834 53.2 37.0 40.6 57.7
835 46.8 47.4 48.1 26.9
836 -5.9 -9.7 -6.5 -4.1
837 52.0 39.6 28.4 22.4
838 -6.6 -6.6 -4.1 -10.1
839 36.3 31.8 33.8 51.4
840 41.6 45.9 52.4 47.5
841 56.6 48.9 46.4 38.8
842 -3.5 -6.0 -3.2 -8.8
843 -8.6 -4.0 -12.0 -11.6
844 -11.8 -9.9 -12.7 -5.3
845 -11.5 -9.5 -11.7 -7.6
846 -12.2 -10.0 -10.8 -8.6
847 41.6 36.0 41.2 49.1
848 60.0 57.0 27.8 43.2
849 20.1 33.0 58.4 59.4
850 -8.9 -9.7 -12.7 -10.0
851 20.3 38.1 48.5 32.2
852 -10.7 -9.7 -4.5 -10.3
853 -10.4 -6.2 -11.3 -11.2
854 55.4 51.5 55.3 29.1
855 42.3 54.3 36.0 41.4
856 0.0 0.0 0.0 0.0
857 -4.9 -5.2 -7.9 -5.0
858 25.3 51.4 40.4 32.4
859 0.0 0.0 0.0 0.0
860 0.0 0.0 0.0 0.0
861 0.0 0.0 0.0 0.0
862 -4.5 -6.4 -9.9 -10.2
863 0.0 0.0 0.0 0.0
864 0.0 0.0 0.0 0.0
865 0.0 0.0 0.0 0.0
866 -5.3 -10.3 -4.4 -6.1
867 -8.1 -7.7 -4.1 -4.3
868 0.0 0.0 0.0 0.0
869 0.0 0.0 0.0 0.0
870 32.9 47.1 58.5 47.5
871 0.0 0.0 0.0 0.0
872 48.9 33.1 42.2 47.5
873 0.0 0.0 0.0 0.0
874 0.0 0.0 0.0 0.0
875 48.7 33.7 49.2 21.7
876 -4.0 -10.9 -8.8 -12.2
877 0.0 0.0 0.0 0.0
878 43.6 32.7 53.6 23.5
879 0.0 0.0 0.0 0.0
880 -4.6 -9.5 -7.8 -6.5
881 0.0 0.0 0.0 0.0
882 0.0 0.0 0.0 0.0
883 0.0 0.0 0.0 0.0
884 0.0 0.0 0.0 0.0
885 49.7 57.1 26.2 56.6
886 0.0 0.0 0.0 0.0
887 0.0 0.0 0.0 0.0
888 0.0 0.0 0.0 0.0
889 0.0 0.0 0.0 0.0
890 0.0 0.0 0.0 0.0
891 0.0 0.0 0.0 0.0
892 0.0 0.0 0.0 0.0
893 0.0 0.0 0.0 0.0
894 51.6 54.1 45.6 37.9
895 -10.3 -3.9 -8.4 -10.1
896 0.0 0.0 0.0 0.0
897 -5.7 -8.9 -8.8 -12.0
898 -9.9 -7.3 -8.2 -8.3
899 0.0 0.0 0.0 0.0
900 -12.1 -5.3 -9.5 -6.2
901 -5.0 -10.9 -8.2 -10.5
902 -6.6 -4.2 -8.6 -7.5
903 -4.1 -8.6 -8.2 -4.3
904 -12.4 -9.3 -9.3 -5.6
905 -4.0 -12.2 -9.6 -3.4
906 -7.0 -10.6 -11.1 -3.2
907 -9.1 -10.0 -6.3 -12.6
908 24.5 53.3 56.2 47.9
909 41.0 43.3 21.4 48.2
910 40.2 34.3 38.1 23.3
911 43.2 23.3 26.2 39.9
912 45.2 24.7 42.3 32.5
913 -4.9 -10.6 -11.0 -8.5
914 -8.4 -11.5 -5.9 -7.7
915 54.2 37.2 31.9 53.7
916 58.8 21.3 28.9 26.2
917 59.2 21.0 27.9 55.8
918 29.5 25.8 29.3 53.5
919 -3.4 -4.6 -3.8 -4.2
920 29.7 55.6 46.5 41.3
921 48.5 30.5 53.9 45.4
922 -5.1 -6.3 -5.0 -11.7
923 -4.6 -10.8 -4.6 -9.9
924 -5.3 -3.9 -4.6 -9.6
925 51.9 52.7 29.0 22.2
926 -12.4 -8.6 -4.4 -5.4
927 -7.5 -3.8 -6.3 -11.7
928 -3.8 -4.3 -10.7 -12.0
929 -8.9 -4.9 -7.8 -3.4
930 25.6 45.9 33.0 40.3
931 -3.3 -6.2 -6.0 -9.0
932 43.4 49.7 59.2 30.9
933 51.3 52.4 54.5 37.5
934 -6.8 -3.4 -6.3 -4.7
935 -7.6 -11.0 -9.0 -12.3
936 39.0 51.9 25.2 59.6
937 46.5 53.6 34.2 39.4
938 -12.3 -5.8 -6.8 -12.0
939 -10.5 -8.9 -7.6 -5.7
940 23.4 21.2 44.7 53.2
941 -4.1 -8.4 -10.6 -7.5
942 -5.6 -6.8 -11.5 -3.5
943 44.4 59.7 36.5 23.8
944 20.0 51.1 56.7 39.5
945 34.0 41.1 55.2 44.7
946 49.8 57.4 39.4 27.6
947 -10.4 -11.7 -7.7 -8.4
948 -7.0 -7.2 -4.2 -3.8
949 50.3 51.6 56.6 34.7
950 -10.5 -3.6 -7.6 -6.6
951 52.9 47.7 30.9 38.0
952 -8.9 -11.5 -7.4 -4.0
953 -3.5 -6.7 -7.4 -11.1
954 -10.3 -5.2 -10.3 -4.5
955 -6.3 -9.7 -4.8 -9.3
956 37.3 24.0 47.7 30.2
957 -7.3 -6.7 -10.9 -3.5
958 42.0 21.2 52.9 59.7
959 28.8 32.6 55.6 22.5
960 -12.1 -5.7 -12.8 -6.2
961 45.7 42.4 27.4 44.1
962 -8.6 -7.1 -5.3 -12.4
963 -3.8 -6.1 -10.0 -4.5
964 -3.5 -9.5 -5.9 -11.0
965 56.8 43.7 51.2 38.9
966 46.2 24.3 43.0 29.0
967 46.3 45.4 57.0 47.5
968 -6.0 -5.5 -4.2 -9.3
969 48.5 38.9 40.1 51.4
970 44.7 27.1 50.9 36.3
971 -7.2 -6.4 -3.8 -4.5
972 -9.3 -11.7 -4.5 -10.8
973 -12.2 -3.6 -12.1 -11.5
974 -9.2 -3.2 -10.5 -3.6
975 -6.1 -10.1 -4.9 -6.0
976 -9.6 -12.2 -9.0 -6.6
977 -8.6 -7.2 -10.1 -7.4
978 -12.3 -11.8 -3.3 -4.8
979 -9.9 -5.7 -11.1 -7.3
980 -12.0 -12.0 -9.3 -10.0
981 29.3 38.6 36.2 56.8
982 27.5 44.7 23.6 44.0
983 52.9 28.6 28.9 48.0
984 -12.7 -5.2 -9.1 -11.9
985 -7.3 -11.2 -5.7 -8.1
986 -5.9 -5.9 -6.2 -7.0
987 -9.9 -10.2 -9.1 -10.6
988 20.3 35.1 46.3 27.4
989 55.8 22.9 22.8 54.6
990 40.9 42.2 41.9 27.0
991 23.9 30.9 25.1 28.1
992 -8.4 -3.4 -6.9 -4.2
993 39.7 54.8 34.0 24.8
994 39.4 28.2 24.7 49.6
995 37.5 58.2 47.6 55.3
996 -8.1 -6.9 -3.4 -5.8
997 -6.0 -8.5 -9.1 -12.5
998 -6.1 -5.2 -7.4 -8.7
999 -12.9 -7.6 -9.0 -10.5
1000 -10.1 -10.7 -8.5 -10.6
1001 -7.2 -6.3 -4.7 -9.7
1002 39.7 46.2 40.8 57.0
1003 -7.6 -7.8 -9.7 -6.3
1004 52.4 20.9 34.4 35.3
1005 42.0 46.8 29.6 28.6
1006 -12.4 -3.8 -3.9 -9.2
1007 29.4 29.3 33.0 28.5
1008 -5.6 -9.0 -8.9 -6.5
1009 -6.1 -4.5 -8.5 -12.7
1010 50.3 59.8 47.3 22.2
1011 -10.8 -5.9 -5.2 -10.3
1012 -12.6 -7.9 -9.6 -9.9
1013 -10.9 -11.8 -4.9 -9.4
1014 -12.1 -10.3 -11.5 -9.0
1015 -12.6 -11.2 -7.9 -5.3
1016 38.8 28.6 35.6 43.2
1017 58.0 52.1 40.9 25.5
1018 -4.6 -4.6 -9.0 -8.7
1019 -9.2 -5.4 -11.4 -6.0
1020 -10.0 -10.7 -8.0 -8.1
1021 60.0 29.9 55.6 57.6
1022 49.6 49.6 26.7 51.7
1023 -9.3 -4.1 -8.0 -9.9
1024 34.3 45.4 28.8 56.8
1025 -4.7 -11.3 -6.5 -4.0
1026 -11.7 -7.9 -10.5 -4.7
1027 -12.3 -12.5 -12.7 -8.8
1028 -3.6 -6.5 -3.2 -8.4
1029 -4.9 -4.9 -8.7 -4.2
1030 55.8 58.7 30.8 31.0
1031 -5.1 -5.5 -9.5 -5.0
1032 -7.4 -7.7 -8.0 -4.7
1033 -9.6 -4.6 -8.7 -6.9
1034 -9.6 -11.9 -5.6 -6.7
1035 43.3 54.4 58.9 43.7
1036 54.8 41.7 53.3 55.6
1037 24.1 39.6 24.9 56.8
1038 28.3 47.7 34.2 52.8
1039 -5.0 -6.5 -7.2 -9.4
1040 -8.8 -5.3 -12.1 -3.3
1041 21.7 35.8 47.3 36.9
1042 43.5 54.0 31.9 29.5
1043 -3.3 -6.5 -11.4 -8.9
1044 -6.6 -11.6 -8.7 -5.6
1045 -9.0 -6.4 -3.9 -8.9
1046 -11.8 -3.9 -5.5 -3.8
1047 -6.9 -3.6 -11.7 -5.3
1048 56.0 55.2 38.8 47.5
1049 32.1 48.6 50.7 59.7
1050 -5.4 -8.3 -5.1 -5.5
1051 -8.6 -6.0 -8.3 -3.5
1052 -4.4 -9.1 -12.1 -12.1
1053 -10.6 -4.9 -5.2 -11.5
1054 45.6 36.2 41.4 21.8
1055 -5.4 -3.7 -4.5 -3.7
1056 40.9 46.6 56.8 51.2
1057 41.8 58.1 27.5 47.9
1058 -11.8 -12.4 -6.2 -5.9
1059 -7.7 -9.0 -11.2 -10.5
1060 -8.9 -11.1 -12.1 -7.2
1061 56.9 49.1 23.7 44.3
1062 32.4 30.8 56.5 22.2
1063 -6.3 -10.8 -3.7 -6.3
1064 35.1 53.3 27.2 28.9
1065 28.0 47.8 21.5 58.4
1066 -7.6 -8.1 -9.0 -3.6
1067 -6.9 -7.0 -10.2 -9.2
1068 54.6 41.2 31.2 52.6
1069 -4.2 -4.0 -11.4 -6.6
1070 -8.6 -12.6 -9.5 -10.2
1071 -11.7 -11.5 -10.8 -9.9
1072 28.4 51.9 24.7 54.9
1073 -8.0 -9.8 -5.5 -7.8
1074 -5.8 -6.5 -5.7 -3.3
1075 32.7 42.3 43.4 30.5
1076 44.5 23.8 58.0 35.5
1077 -11.9 -8.3 -6.2 -9.8
1078 29.7 48.7 29.1 28.2
1079 44.3 30.3 29.1 54.9
1080 37.1 41.6 28.2 57.3
1081 59.0 41.7 58.8 46.4
1082 -8.9 -12.7 -3.3 -4.8
1083 -7.6 -10.5 -8.0 -11.8
1084 -5.8 -4.9 -3.6 -10.2
1085 -9.7 -9.7 -7.7 -5.1
1086 -10.4 -9.6 -9.6 -12.2
1087 -12.5 -4.6 -11.1 -8.5
1088 35.5 22.0 27.2 26.8
1089 39.4 30.0 39.2 55.6
1090 -9.8 -12.3 -3.8 -5.8
1091 27.5 57.3 48.6 21.7
1092 -6.0 -8.5 -5.5 -8.0
1093 -10.7 -10.8 -7.5 -10.4
1094 24.0 36.4 43.0 59.1
1095 -4.4 -11.2 -11.5 -10.2
1096 -11.7 -9.8 -10.5 -12.6
1097 21.8 46.9 28.1 41.2
1098 45.5 32.8 36.3 34.4
1099 -7.8 -3.2 -5.6 -8.0
1100 -7.1 -12.7 -8.9 -11.9
1101 25.4 58.0 44.2 54.0
1102 -10.7 -9.4 -3.9 -7.2
1103 56.7 55.1 21.0 35.5
1104 -6.1 -7.8 -10.7 -12.4
1105 -11.7 -6.1 -10.1 -3.2
1106 -5.7 -12.6 -11.8 -5.5
1107 54.7 46.4 56.9 53.9
1108 44.7 52.3 49.5 49.5
1109 -5.6 -3.9 -10.9 -12.5
1110 41.6 37.3 21.9 31.5
1111 22.7 28.7 57.1 54.6
1112 -3.7 -12.1 -11.2 -4.0
1113 59.0 43.5 49.1 26.4
1114 22.3 40.8 52.1 32.1
1115 -10.7 -8.3 -7.5 -3.3
1116 -11.0 -3.3 -10.3 -10.7
1117 -6.5 -11.0 -8.8 -12.6
1118 -4.3 -6.4 -5.6 -10.8
1119 53.6 42.6 28.0 22.6
1120 -5.3 -12.6 -7.4 -8.5
1121 -10.1 -10.3 -3.3 -7.6
1122 -9.8 -10.8 -11.9 -9.3
1123 24.3 35.2 56.3 50.5
1124 51.7 23.7 35.2 56.0
1125 44.3 43.9 35.1 44.0
1126 -11.5 -5.2 -12.6 -5.4
1127 -10.9 -5.8 -11.3 -7.4
1128 40.3 34.5 26.9 24.0
1129 -8.9 -11.9 -4.6 -5.1
1130 -3.4 -4.2 -3.8 -9.9
1131 -3.8 -8.6 -5.8 -9.8
1132 -6.8 -4.4 -7.0 -8.1
1133 36.6 55.9 39.8 20.0
1134 -5.2 -6.2 -4.0 -4.7
1135 -12.8 -9.7 -12.6 -6.0
1136 50.5 26.0 39.5 39.4
1137 27.7 43.0 20.6 51.0
1138 47.1 34.0 47.1 51.2
1139 -6.5 -3.9 -8.6 -7.5
1140 0.0 0.0 0.0 0.0
1141 36.7 22.6 29.5 31.8
1142 -7.3 -6.9 -3.5 -5.8
1143 29.6 39.6 27.1 50.5
1144 -7.4 -5.7 -4.8 -4.1
1145 -6.4 -9.5 -9.7 -4.1
1146 41.9 28.1 45.7 52.0
1147 40.0 33.5 31.9 32.6
1148 -7.8 -12.7 -4.8 -7.3
1149 -9.1 -7.8 -6.3 -5.5
1150 48.8 33.6 46.3 44.0
1151 -4.6 -8.7 -3.2 -4.9
1152 55.6 55.1 21.8 35.0
1153 -4.3 -8.8 -3.6 -6.3
1154 33.7 27.7 42.8 30.6
1155 -9.8 -9.1 -11.0 -4.3
1156 32.1 39.5 51.9 27.6
1157 -5.4 -3.6 -6.3 -4.3
1158 25.7 37.2 35.0 28.8
1159 43.9 50.0 34.5 42.3
1160 20.0 48.9 36.9 38.1
1161 -11.5 -7.7 -5.0 -10.9
1162 -8.7 -7.3 -4.7 -11.7
1163 -6.1 -9.2 -6.8 -10.0
1164 25.4 23.3 52.1 27.3
1165 -5.8 -7.2 -9.6 -11.0
1166 -11.8 -7.5 -11.9 -3.3
1167 -6.3 -6.6 -8.4 -8.6
1168 46.2 48.6 55.8 24.1
1169 22.7 36.3 25.4 22.4
1170 -3.8 -7.1 -8.3 -10.7
1171 -6.0 -7.9 -8.1 -6.5
1172 48.5 21.0 51.4 27.1
1173 44.9 42.2 56.9 44.9
1174 24.7 26.4 29.3 38.8
1175 -12.4 -11.7 -9.2 -12.5
1176 -3.3 -3.3 -10.8 -12.4
1177 27.6 39.8 51.2 20.8
1178 -5.2 -8.9 -4.7 -11.7
1179 34.0 46.3 38.8 36.5
1180 -8.4 -8.3 -4.4 -7.1
1181 -11.3 -9.1 -7.0 -7.0
1182 -7.9 -8.2 -6.6 -6.8
1183 59.4 30.0 48.0 44.8
1184 -4.5 -8.6 -8.1 -10.3
1185 -7.7 -12.3 -10.6 -11.8
1186 -5.6 -9.9 -4.5 -7.6
1187 32.2 55.3 40.2 53.1
1188 -6.5 -5.3 -7.6 -11.5
1189 -11.5 -11.7 -6.2 -9.4
1190 -5.4 -9.4 -4.6 -7.1
1191 43.7 30.2 52.6 31.5
1192 -12.2 -8.2 -7.6 -5.6
1193 -6.7 -8.2 -10.3 -7.2
1194 -4.0 -12.5 -12.2 -11.5
1195 58.2 38.8 23.8 54.5
1196 39.1 32.4 59.6 46.7
1197 32.4 51.6 34.9 55.1
1198 38.1 36.9 54.2 43.4
1199 -3.9 -9.5 -4.1 -8.4
1200 -6.4 -11.4 -3.4 -11.7
1201 -12.5 -9.4 -4.2 -7.3
1202 39.8 58.4 51.2 23.1
1203 46.2 20.2 37.1 22.4
1204 48.8 31.9 37.3 23.9
1205 -7.5 -7.0 -6.0 -3.5
1206 -8.8 -9.9 -11.1 -11.6
1207 45.7 23.4 56.7 26.8
1208 -7.8 -9.0 -5.1 -5.4
1209 -4.5 -3.6 -10.8 -4.6
1210 39.1 45.4 56.8 45.4
1211 -9.0 -7.8 -7.8 -10.1
1212 -4.8 -5.0 -8.3 -6.2
1213 25.9 52.2 40.4 32.0
1214 42.8 44.7 48.8 29.9
1215 -7.4 -9.8 -10.9 -10.1
1216 32.6 29.2 60.0 38.5
1217 -4.1 -5.5 -8.6 -9.8
1218 -10.5 -7.5 -11.2 -8.5
1219 -9.1 -8.4 -6.6 -4.3
1220 -9.5 -5.4 -5.6 -7.0
1221 44.5 25.2 30.7 52.7
1222 -5.0 -8.9 -10.0 -6.0
1223 25.6 35.3 46.9 55.0
1224 -5.2 -5.7 -7.4 -5.6
1225 -10.7 -3.9 -5.0 -4.6
1226 51.2 55.5 40.7 40.6
1227 -12.9 -7.2 -5.9 -4.6
1228 42.7 51.7 39.4 55.4
1229 30.0 49.8 45.3 26.5
1230 -6.2 -9.8 -5.5 -11.0
1231 -6.0 -12.1 -9.8 -11.8
1232 -9.1 -6.1 -11.7 -9.0
1233 -3.4 -5.9 -11.6 -10.6
1234 27.9 47.4 53.7 43.7
1235 -4.8 -6.2 -6.7 -5.3
1236 47.6 20.5 48.1 21.3
1237 -5.5 -5.6 -6.2 -5.4
1238 -9.3 -11.7 -11.5 -6.1
1239 -7.8 -4.2 -3.7 -8.2
1240 56.8 59.0 44.8 41.5
1241 49.2 29.5 26.4 49.1
1242 28.1 25.1 29.3 24.2
1243 -7.2 -8.2 -12.5 -4.7
1244 26.9 31.5 30.2 22.8
1245 20.0 48.4 23.9 59.8
1246 -5.6 -3.2 -6.6 -4.9
1247 -4.5 -11.5 -10.7 -5.6
1248 -12.7 -8.1 -4.7 -9.4
1249 55.3 38.2 24.1 58.7
1250 -4.8 -4.6 -7.2 -5.6
1251 23.7 57.5 38.8 58.1
1252 -10.9 -5.3 -12.6 -9.4
1253 -5.2 -11.2 -4.0 -9.9
1254 -12.1 -7.7 -5.0 -4.4
1255 -4.1 -11.8 -6.1 -9.9
1256 -8.1 -10.4 -4.7 -5.2
1257 -6.7 -8.2 -10.2 -5.8
1258 31.4 50.0 26.2 45.7
1259 59.4 46.5 27.1 51.9
1260 -4.1 -5.4 -7.9 -12.2
1261 50.3 20.3 48.0 40.0
1262 -10.8 -10.3 -9.3 -6.3
1263 -8.4 -4.1 -7.2 -11.9
1264 -6.3 -3.5 -12.2 -6.8
1265 -11.8 -7.7 -5.7 -9.2
1266 25.1 27.0 57.2 54.6
1267 30.0 39.5 59.5 21.6
1268 33.6 27.3 35.5 44.3
1269 -6.5 -6.9 -3.5 -10.1
1270 0.0 0.0 0.0 0.0
1271 57.3 29.6 22.8 33.7
1272 -11.6 -7.2 -5.5 -3.5
1273 -3.5 -8.3 -4.9 -7.3
1274 -10.8 -9.6 -10.3 -5.3
1275 -11.3 -12.5 -5.1 -6.8
1276 54.4 20.7 27.6 26.7
1277 -5.4 -9.4 -9.2 -10.6
1278 51.9 57.1 29.0 58.7
1279 -9.3 -7.8 -5.5 -7.7
1280 -8.6 -7.4 -4.3 -5.3
1281 -12.3 -4.7 -10.1 -11.8
1282 56.0 53.1 23.3 58.8
1283 28.2 30.7 24.1 45.2
1284 47.1 20.8 38.2 51.0
1285 -9.7 -8.0 -7.9 -4.5
1286 -9.9 -7.3 -4.9 -11.8
1287 41.2 49.5 54.3 31.9
1288 -3.8 -4.1 -3.9 -5.8
1289 25.2 57.0 59.0 58.8
1290 21.1 38.9 34.2 53.5
1291 32.1 30.1 38.2 51.5
1292 -8.5 -12.6 -8.4 -8.8
1293 41.3 36.8 59.2 55.8
1294 -3.9 -10.5 -7.4 -12.2
1295 53.9 50.1 43.9 33.9
1296 30.9 34.0 22.3 46.2
1297 24.1 58.7 21.1 46.6
1298 35.2 39.1 37.6 45.5
1299 21.9 44.9 42.0 29.0
1300 -9.4 -10.0 -8.4 -6.7
1301 -10.6 -5.4 -11.7 -12.3
1302 -7.6 -10.1 -11.8 -7.9
1303 41.3 39.1 44.2 56.5
1304 -4.4 -4.7 -7.9 -11.3
1305 -8.9 -4.6 -8.8 -7.5
1306 -11.4 -7.0 -12.0 -6.4
1307 57.6 37.3 53.8 45.4
1308 31.1 43.5 39.3 49.6
1309 30.4 58.3 32.4 22.0
1310 -5.3 -5.2 -6.5 -5.2
1311 43.4 37.3 47.4 31.2
1312 -9.8 -8.0 -7.2 -3.3
1313 -9.1 -11.2 -7.4 -6.6
1314 -11.3 -6.1 -12.1 -7.5
1315 -5.1 -9.5 -8.8 -9.5
1316 -11.2 -7.0 -7.2 -8.3
1317 31.0 45.4 52.6 54.8
1318 52.8 28.7 56.3 46.0
1319 -12.8 -5.8 -8.3 -11.9
1320 51.1 49.0 36.0 22.3
1321 -9.8 -11.3 -7.2 -8.7
1322 56.9 56.3 20.4 24.9
1323 -11.3 -5.0 -10.0 -11.8
1324 -11.7 -10.6 -5.8 -5.4
1325 -5.6 -5.3 -3.9 -6.1
1326 -3.3 -4.7 -5.5 -12.1
1327 20.4 41.8 26.4 48.7
1328 -8.7 -6.4 -7.8 -6.3
1329 -12.2 -12.6 -9.9 -5.1
1330 -11.6 -3.7 -6.1 -12.4
1331 36.8 20.7 59.0 59.8
1332 -5.2 -10.0 -11.9 -11.0
1333 -4.7 -9.6 -5.1 -7.3
1334 36.0 57.1 33.0 22.4
1335 -12.4 -3.8 -9.5 -11.5
1336 -8.4 -12.7 -7.1 -8.5
1337 -3.5 -5.6 -8.0 -9.1
1338 57.4 23.8 24.4 50.2
1339 -11.2 -6.8 -3.9 -10.9
1340 -5.1 -6.1 -3.5 -4.4
1341 27.9 42.9 41.6 41.7
1342 55.6 37.1 46.9 28.9
1343 37.6 37.3 54.7 49.7
1344 59.1 20.5 46.6 49.7
1345 -10.4 -7.1 -8.4 -8.9
1346 -3.4 -3.6 -6.2 -10.2
1347 -9.0 -12.1 -9.3 -8.0
1348 22.3 49.7 33.8 21.8
1349 -4.1 -11.8 -10.2 -5.7
1350 34.2 48.4 24.8 40.6
1351 -4.9 -9.0 -11.6 -5.2
1352 -10.1 -5.1 -7.3 -10.4
1353 -6.2 -12.1 -8.3 -4.0
1354 -5.5 -7.7 -9.4 -5.8
1355 0.0 0.0 0.0 0.0
1356 -5.3 -8.3 -6.5 -9.9
1357 -8.6 -9.2 -12.8 -6.8
1358 -11.9 -12.3 -8.9 -6.5
1359 51.9 31.0 49.8 55.3
1360 -10.8 -9.2 -4.7 -10.9
1361 -9.6 -11.1 -5.6 -10.1
1362 -9.1 -8.7 -6.8 -7.7
1363 -8.6 -8.2 -5.5 -7.9
1364 -12.7 -6.2 -12.8 -10.3
1365 -4.7 -7.6 -10.5 -9.6
1366 -6.2 -12.6 -5.3 -6.3
1367 -8.3 -9.2 -10.2 -6.6
1368 -6.2 -3.4 -10.0 -11.5
1369 47.8 29.1 34.1 32.5
1370 -10.9 -10.2 -3.5 -6.6
1371 25.3 46.1 29.0 40.6
1372 -9.1 -8.8 -8.0 -11.8
1373 58.9 26.2 27.3 59.8
1374 -8.4 -9.4 -4.7 -6.9
1375 -6.6 -3.4 -10.1 -11.4
1376 -5.0 -4.7 -3.6 -8.7
1377 -8.2 -4.6 -7.0 -3.6
1378 30.3 58.5 55.2 40.9
1379 42.7 25.3 57.0 35.9
1380 58.9 28.4 34.0 51.8
1381 51.5 40.7 42.6 51.8
1382 -12.9 -8.4 -6.5 -10.6
1383 -11.9 -3.7 -9.6 -4.6
1384 -6.6 -7.3 -9.2 -7.8
1385 53.8 28.7 57.0 44.1
1386 -7.7 -6.0 -12.6 -10.0
1387 38.9 59.5 23.1 20.4
1388 24.8 33.1 45.2 40.9
1389 -12.7 -11.1 -11.2 -8.5
1390 54.3 54.8 40.4 59.3
1391 -5.1 -6.3 -12.3 -6.6
1392 -11.4 -7.5 -12.2 -5.9
1393 -11.9 -8.1 -7.8 -3.4
1394 -8.2 -4.4 -10.1 -6.0
1395 -9.1 -3.6 -11.0 -7.6
1396 53.7 27.6 43.0 35.4
1397 -10.1 -5.9 -7.1 -7.0
1398 28.2 54.5 36.8 30.8
1399 -8.0 -7.6 -6.2 -11.8
1400 -10.9 -4.2 -9.8 -9.0
1401 38.9 48.1 23.1 36.3
1402 -5.5 -5.0 -4.0 -5.3
1403 -12.2 -8.5 -11.5 -3.6
1404 -8.1 -3.7 -7.8 -4.2
1405 -5.0 -5.1 -7.6 -8.8
1406 58.8 57.1 58.1 46.4
1407 -4.3 -7.9 -10.9 -6.4
1408 -9.1 -10.5 -5.5 -11.1
1409 -5.0 -7.5 -11.8 -6.9
1410 59.3 28.8 35.6 31.9
1411 45.0 54.9 40.2 29.3
1412 -8.2 -9.9 -3.6 -12.4
1413 -7.0 -7.1 -5.8 -8.8
1414 21.1 26.6 42.8 40.6
1415 -7.9 -7.9 -7.7 -11.0
1416 55.7 30.7 38.7 41.2
1417 20.8 45.8 21.2 49.7
1418 -8.9 -3.5 -12.5 -4.3
1419 -6.5 -9.7 -5.9 -10.3
1420 -8.0 -8.8 -10.6 -8.1
1421 35.9 43.8 29.3 58.2
1422 -7.8 -12.0 -10.5 -7.8
1423 -10.9 -11.4 -11.2 -7.0
1424 36.3 54.6 39.6 25.1
1425 -10.6 -8.3 -3.3 -12.6
1426 -4.7 -4.4 -5.5 -5.5
1427 -10.1 -6.4 -9.0 -4.8
1428 -6.7 -6.1 -12.3 -4.2
1429 -10.0 -8.2 -10.6 -11.0
1430 29.0 57.3 55.2 28.1
1431 -4.1 -11.8 -10.3 -12.2
1432 -9.1 -12.4 -12.7 -12.4
1433 -12.3 -5.9 -8.0 -10.3
1434 -5.0 -7.6 -10.1 -12.3
1435 -10.3 -3.7 -11.1 -11.6
1436 -10.9 -12.8 -5.7 -6.0
1437 -9.9 -3.7 -6.3 -9.8
1438 44.1 39.5 37.5 40.9
1439 -9.6 -11.0 -11.6 -6.1
1440 -5.8 -3.8 -7.8 -6.9
1441 34.3 56.1 45.9 54.7
1442 30.5 51.6 54.6 40.6
1443 40.3 39.7 44.3 52.1
1444 44.0 32.6 60.0 45.2
1445 53.2 56.8 23.8 29.1
1446 -5.7 -5.6 -10.3 -5.7
1447 -4.4 -4.7 -11.7 -8.2
1448 45.6 20.6 45.9 31.2
1449 -8.0 -7.5 -6.2 -7.6
1450 57.3 54.2 50.5 49.7
1451 -7.9 -12.0 -5.2 -5.8
1452 -12.0 -8.0 -5.3 -4.3
1453 -6.0 -7.9 -3.5 -8.7
1454 42.5 25.1 22.2 26.9
1455 -4.0 -7.0 -3.3 -8.5
1456 55.9 37.0 34.2 43.3
1457 23.4 31.8 51.0 45.5
1458 -10.8 -10.4 -12.1 -9.4
1459 53.8 51.7 27.0 25.6
1460 -12.7 -9.8 -10.3 -5.4
1461 27.2 47.6 59.3 35.2
1462 -8.5 -12.3 -11.2 -5.0
1463 -11.7 -12.3 -9.3 -4.2
1464 -6.1 -11.5 -8.6 -6.1
1465 -6.4 -3.3 -6.4 -8.9
1466 37.3 31.9 39.6 57.5
1467 -10.9 -12.3 -3.7 -9.7
1468 -11.6 -6.2 -11.4 -6.5
1469 -11.0 -5.9 -5.7 -7.6
1470 -9.3 -3.3 -9.8 -3.5
1471 20.0 54.3 31.4 22.3
1472 -7.7 -11.2 -3.4 -10.3
1473 45.1 27.9 51.7 29.8
1474 21.9 49.3 50.2 58.4
1475 -4.1 -12.4 -7.2 -12.6
1476 46.3 38.2 32.3 32.9
1477 -8.1 -9.6 -9.0 -5.3
1478 -5.3 -9.6 -3.8 -11.4
1479 30.3 55.9 45.0 27.9
1480 -9.6 -5.3 -5.3 -9.1
1481 -5.4 -8.7 -8.0 -11.6
1482 37.7 32.8 32.1 41.0
1483 -6.8 -9.7 -5.0 -3.9
1484 -11.2 -7.4 -5.0 -5.9
1485 29.4 57.7 28.0 57.7
1486 54.6 27.5 50.8 53.0
1487 39.4 57.7 24.4 32.2
1488 -7.4 -4.3 -3.9 -4.6
1489 59.5 48.1 50.8 27.7
1490 -8.1 -5.5 -8.2 -8.5
1491 -3.3 -12.5 -8.7 -6.3
1492 -4.3 -9.8 -7.6 -12.3
1493 -5.6 -8.9 -8.8 -7.4
1494 -11.4 -8.7 -5.7 -10.0
1495 -10.3 -9.8 -10.0 -10.7
1496 42.3 32.4 44.7 38.9
1497 -6.1 -6.2 -5.2 -3.5
1498 -12.3 -11.0 -10.6 -8.6
1499 -4.1 -4.6 -8.9 -9.3
1500 22.9 52.6 29.0 47.8
1501 46.8 36.6 27.7 38.8
1502 56.6 36.5 56.6 38.4
1503 20.9 45.6 47.2 53.1
1504 -8.1 -11.3 -7.9 -12.1
1505 41.9 44.2 30.0 59.6
1506 -6.4 -4.9 -12.5 -6.3
1507 -9.7 -8.5 -6.9 -11.3
1508 45.7 45.6 23.6 36.7
1509 -6.6 -12.1 -9.7 -7.1
1510 -11.3 -5.3 -10.1 -8.6
1511 -10.3 -6.6 -9.4 -3.3
1512 -11.6 -12.7 -5.5 -11.3
1513 -5.4 -3.5 -8.7 -7.6
1514 54.2 41.0 29.4 24.1
1515 -12.8 -3.4 -3.6 -3.6
1516 41.7 26.4 55.1 36.0
1517 -11.6 -11.1 -4.8 -10.4
1518 -7.0 -8.1 -5.8 -10.9
1519 -5.8 -10.2 -4.7 -10.6
1520 24.4 54.2 59.8 47.8
1521 -3.4 -6.4 -11.0 -7.4
1522 49.1 22.4 47.5 37.9
1523 -9.7 -12.8 -11.9 -11.7
1524 -5.1 -4.8 -5.2 -8.7
1525 30.2 32.0 40.6 35.8
1526 -12.6 -6.9 -6.5 -9.4
1527 -10.0 -6.2 -6.7 -8.0
1528 45.1 43.0 35.5 49.8
1529 -11.8 -3.8 -9.7 -7.2
1530 -5.4 -8.1 -9.7 -5.2
1531 27.4 37.5 20.3 43.0
1532 21.1 58.0 32.0 45.6
1533 33.0 46.8 32.9 20.0
1534 37.6 48.1 26.1 38.1
1535 -8.2 -6.4 -4.4 -3.9
1536 -7.0 -9.4 -4.5 -10.7
1537 41.6 49.0 47.6 21.0
1538 27.2 40.5 55.4 30.3
1539 39.8 24.5 24.0 24.9
1540 -3.5 -7.3 -11.7 -6.1
1541 24.5 23.3 39.8 56.2
1542 -12.4 -6.0 -8.2 -3.4
1543 46.5 41.6 52.7 38.2
1544 47.0 57.0 34.4 34.6
1545 -9.9 -4.3 -10.8 -11.2
1546 -11.2 -10.8 -8.7 -7.4
1547 -8.9 -10.3 -8.8 -3.9
1548 -4.2 -5.7 -12.0 -12.3
1549 -9.8 -5.4 -7.3 -10.7
1550 45.2 43.4 30.5 30.7
1551 30.6 28.5 36.8 31.5
1552 -11.0 -7.0 -5.1 -6.8
1553 -8.1 -4.5 -10.2 -4.2
1554 23.4 58.8 28.2 55.5
1555 -4.1 -9.7 -7.5 -5.1
1556 46.0 38.1 56.6 56.1
1557 -8.2 -7.4 -12.1 -12.0
1558 50.0 39.5 40.4 41.1
1559 -7.8 -12.6 -9.4 -4.1
1560 -4.1 -7.3 -5.5 -9.0
1561 28.9 40.4 59.4 24.8
1562 -11.9 -5.4 -7.7 -9.4
1563 56.7 27.1 20.4 36.1
1564 50.4 23.7 44.5 57.4
1565 -9.9 -10.6 -9.9 -10.4
1566 30.2 57.8 32.9 43.7
1567 -8.9 -12.6 -12.5 -5.1
1568 -9.7 -8.2 -5.7 -9.1
1569 29.0 36.2 42.8 56.5
1570 -9.5 -6.8 -4.1 -3.4
1571 -7.1 -6.0 -4.9 -7.9
1572 -7.5 -8.1 -7.5 -5.0
1573 -5.6 -4.7 -6.7 -10.3
1574 -8.1 -4.5 -12.6 -9.3
1575 -4.1 -4.8 -3.4 -7.7
1576 -6.2 -12.5 -6.9 -7.7
1577 28.5 31.2 22.5 57.3
1578 -9.8 -7.2 -8.5 -6.4
1579 -6.1 -4.8 -4.6 -11.1
1580 -4.3 -9.9 -9.6 -9.7
1581 59.1 25.8 20.8 48.3
1582 46.4 34.2 43.5 39.1
1583 59.7 59.3 46.2 57.5
1584 34.6 42.4 49.0 31.6
1585 -8.2 -3.6 -11.6 -8.0
1586 -7.1 -9.8 -5.4 -9.7
1587 59.1 55.4 28.1 47.0
1588 -6.0 -12.6 -6.6 -6.4
1589 30.3 32.4 30.9 38.3
1590 -7.6 -7.1 -4.5 -5.8
1591 49.2 45.6 21.9 33.5
1592 -5.9 -5.0 -8.5 -10.0
1593 -6.6 -7.2 -9.6 -5.0
1594 -6.7 -6.3 -7.0 -8.7
1595 -7.3 -8.1 -7.9 -7.1
1596 -7.4 -11.8 -10.2 -10.5
1597 47.3 34.4 39.9 20.1
1598 -8.8 -10.3 -3.2 -6.9
1599 24.8 54.0 20.5 25.7
1600 -9.3 -12.4 -10.8 -6.8
1601 -4.9 -5.8 -8.5 -9.0
1602 22.0 29.2 38.1 42.3
1603 20.7 48.4 29.7 45.1
1604 -10.1 -10.3 -7.3 -8.8
1605 56.8 58.3 25.1 36.5
1606 49.6 33.3 42.7 54.5
1607 49.3 33.5 39.1 31.7
1608 -6.4 -7.1 -6.7 -11.4
1609 -6.4 -6.6 -6.2 -5.8
1610 29.5 51.3 35.5 22.2
1611 -12.5 -6.1 -10.5 -7.5
1612 43.4 54.7 24.4 31.3
1613 59.4 40.7 20.9 37.0
1614 -10.9 -12.6 -5.4 -8.4
1615 -4.4 -11.1 -10.4 -4.4
1616 -11.0 -7.0 -3.9 -8.7
1617 -3.3 -11.1 -5.7 -10.8
1618 -12.5 -3.5 -12.5 -4.8
1619 -10.7 -5.8 -9.1 -9.5
1620 47.7 38.4 26.1 54.2
1621 -8.9 -3.5 -10.5 -8.5
1622 42.3 24.7 51.2 43.7
1623 -6.9 -6.9 -12.4 -10.7
1624 50.9 58.6 40.1 32.6
1625 36.9 35.7 52.8 54.6
1626 -8.0 -4.1 -4.3 -10.9
1627 35.1 57.1 53.8 31.0
1628 52.3 34.1 58.9 47.7
1629 50.8 47.5 43.5 54.5
1630 -8.5 -5.7 -6.8 -5.1
1631 -7.5 -8.1 -6.2 -6.6
1632 -8.5 -7.5 -4.1 -5.4
1633 -7.0 -8.1 -11.2 -6.7
1634 -3.6 -11.5 -7.7 -6.8
1635 -12.6 -10.7 -7.6 -12.5
1636 -7.5 -7.4 -8.5 -12.0
1637 -9.5 -10.1 -6.8 -4.2
1638 -11.5 -5.9 -7.1 -8.9
1639 46.7 53.4 32.9 23.5
1640 -10.3 -10.2 -10.5 -8.5
1641 -8.2 -7.5 -4.9 -11.2
1642 -12.8 -11.8 -12.6 -6.5
1643 52.2 31.9 38.9 57.6
1644 -4.0 -11.9 -6.3 -6.5
1645 55.7 55.2 57.7 52.9
1646 38.9 29.5 33.5 35.8
1647 -11.8 -5.5 -9.3 -6.2
1648 -5.8 -10.7 -7.3 -12.0
1649 -9.0 -5.1 -11.0 -5.0
1650 29.5 23.1 23.0 49.8
1651 -12.6 -8.5 -8.5 -9.7
1652 -10.2 -6.2 -9.7 -4.9
1653 -11.0 -11.4 -3.5 -9.0
1654 24.7 44.6 39.2 49.6
1655 -10.3 -5.7 -12.0 -6.8
1656 -3.4 -6.4 -10.2 -4.9
1657 -8.5 -11.2 -9.9 -10.7
1658 -9.5 -12.6 -5.1 -9.7
1659 -5.7 -6.9 -11.6 -12.4
1660 -11.8 -6.1 -9.3 -3.5
1661 -6.5 -3.5 -7.3 -8.5
1662 -11.1 -7.6 -10.6 -5.0
1663 -7.6 -6.4 -5.3 -7.9
1664 -7.9 -7.9 -8.6 -10.4
1665 -5.7 -3.6 -5.0 -4.9
1666 0.0 0.0 0.0 0.0
1667 56.6 27.4 26.0 45.3
1668 -12.1 -3.7 -8.7 -7.8
1669 56.6 32.4 48.3 22.5
1670 -11.0 -3.8 -9.9 -5.4
1671 -3.9 -5.5 -12.8 -3.8
1672 -7.2 -11.0 -6.0 -3.2
1673 -5.5 -8.9 -6.2 -3.2
1674 -11.1 -3.7 -7.9 -6.2
1675 -10.4 -9.0 -9.8 -7.4
1676 27.2 31.2 25.7 29.8
1677 34.7 53.1 48.3 20.9
1678 39.9 51.6 36.2 40.9
1679 -6.2 -12.8 -3.9 -5.8
1680 57.9 30.3 29.0 24.3
1681 -3.3 -8.2 -11.1 -3.9
1682 -12.2 -8.7 -7.6 -6.0
1683 -4.1 -11.2 -3.4 -8.9
1684 21.8 57.9 28.6 58.1
1685 -3.5 -5.0 -7.2 -6.7
1686 31.7 39.1 51.0 37.4
1687 -7.4 -10.1 -9.1 -5.1
1688 -6.4 -5.0 -7.9 -10.3
1689 -5.9 -3.5 -4.6 -9.7
1690 -8.0 -7.3 -11.6 -7.4
1691 29.9 46.0 37.0 21.7
1692 -9.3 -7.7 -7.5 -4.8
1693 -3.9 -3.5 -8.0 -3.5
1694 -6.8 -5.6 -6.7 -7.6
1695 37.0 37.8 34.1 40.9
1696 -8.9 -5.4 -8.8 -5.8
1697 -11.2 -6.8 -10.1 -11.7
1698 -6.4 -7.8 -4.0 -7.5
1699 -4.8 -3.8 -11.0 -6.3
1700 -5.8 -3.5 -10.6 -4.6
1701 35.5 33.4 33.6 36.4
1702 -8.1 -4.2 -4.0 -4.6
1703 59.9 33.6 47.7 59.8
1704 20.4 22.5 48.8 40.0
1705 34.4 51.0 50.4 42.4
1706 -12.0 -9.3 -12.3 -5.3
1707 30.2 46.1 39.0 34.2
1708 -3.7 -4.5 -7.5 -11.5
1709 52.4 45.1 48.6 52.0
1710 57.2 49.1 35.5 49.6
1711 54.3 56.9 31.1 35.3
1712 48.4 44.0 53.6 22.6
1713 25.8 52.0 54.9 47.1
1714 -6.1 -4.6 -8.0 -7.5
1715 0.0 0.0 0.0 0.0
1716 26.5 25.9 57.2 54.1
1717 -9.0 -7.4 -12.5 -8.6
1718 -3.6 -5.7 -9.2 -7.7
1719 -4.4 -7.5 -6.2 -5.0
1720 -7.8 -8.8 -9.1 -8.2
1721 56.5 58.4 20.4 38.2
1722 -7.0 -6.4 -12.0 -9.5
1723 -12.1 -4.8 -4.1 -6.3
1724 -6.2 -3.4 -3.2 -6.9
1725 20.8 33.1 23.7 58.6
1726 37.2 57.7 44.3 48.9
1727 32.8 28.5 56.1 31.8
1728 50.1 38.3 34.7 35.0
1729 -3.6 -7.3 -10.5 -11.9
1730 -3.8 -8.9 -7.6 -5.6
1731 49.6 38.3 34.3 25.3
1732 -7.2 -6.4 -12.6 -10.8
1733 -12.0 -9.7 -4.2 -5.5
1734 40.9 45.3 35.7 26.6
1735 -8.6 -3.7 -7.8 -4.4
1736 -7.3 -7.1 -8.9 -8.5
1737 40.3 39.6 20.9 25.5
1738 -4.3 -4.5 -4.1 -10.6
1739 -7.0 -5.6 -3.4 -4.9
1740 -12.1 -9.0 -11.3 -6.4
1741 42.5 53.7 41.6 34.7
1742 48.1 23.0 43.5 22.3
1743 49.3 26.4 21.0 40.6
1744 -10.9 -5.5 -7.5 -9.4
1745 40.3 21.6 25.5 25.7
1746 20.9 39.3 49.1 42.8
1747 -5.8 -8.2 -6.2 -9.5
1748 -8.4 -11.3 -9.4 -7.4
1749 26.5 53.1 50.8 44.0
1750 36.2 21.0 41.7 23.4
1751 56.9 35.2 44.0 26.6
1752 31.4 27.3 21.2 21.0
1753 -6.8 -7.3 -5.5 -6.6
1754 30.2 51.6 46.8 20.2
1755 -12.2 -8.7 -5.8 -9.7
1756 -10.6 -8.7 -9.4 -11.0
1757 -5.1 -3.6 -9.5 -7.5
1758 22.3 51.4 21.4 35.7
1759 -7.2 -8.3 -10.5 -11.6
1760 -8.3 -11.4 -6.5 -10.8
1761 -10.9 -10.4 -5.4 -8.0
1762 -5.3 -11.9 -8.2 -10.0
1763 -8.1 -11.3 -9.0 -10.1
1764 29.2 44.2 43.7 47.4
1765 29.0 44.5 49.4 40.0
1766 -4.5 -5.6 -4.5 -9.2
1767 -6.9 -8.8 -12.2 -4.3
1768 45.7 29.2 43.3 27.3
1769 -4.2 -5.3 -8.7 -4.8
1770 -6.6 -7.8 -7.9 -5.4
1771 -5.2 -9.0 -10.5 -6.7
1772 23.2 25.9 35.9 34.2
1773 -8.2 -5.6 -5.7 -7.6
1774 53.1 30.4 40.3 55.5
1775 -12.1 -12.2 -6.2 -10.2
1776 -5.3 -8.4 -3.6 -4.3
1777 25.8 36.2 20.7 29.3
1778 48.6 38.6 50.7 34.7
1779 32.5 40.2 57.9 36.8
1780 -7.4 -5.7 -3.4 -9.9
1781 -5.4 -6.3 -4.9 -4.1
1782 -3.9 -11.8 -4.5 -3.9
1783 -11.0 -8.0 -7.2 -9.7
1784 -7.3 -5.6 -8.3 -10.5
1785 -11.2 -6.2 -11.5 -3.4
1786 -12.6 -9.4 -4.5 -4.1
1787 49.6 20.7 49.2 52.3
1788 -12.1 -10.0 -8.8 -8.0
1789 56.5 41.7 55.8 44.3
1790 -12.7 -12.4 -6.8 -3.5
1791 -11.7 -6.1 -6.7 -12.1
1792 59.7 32.9 35.8 23.8
1793 58.8 44.0 53.1 21.6
1794 -10.9 -8.9 -7.4 -4.9
1795 -8.8 -9.2 -3.5 -11.7
1796 -11.4 -8.6 -9.4 -6.0
1797 -5.9 -10.4 -5.5 -8.0
1798 -10.6 -4.5 -4.1 -7.8
1799 -4.4 -11.6 -10.3 -11.1
1800 -8.5 -7.7 -5.3 -3.8
1801 -4.5 -5.0 -4.9 -10.1
1802 38.6 37.8 38.2 24.8
1803 21.1 37.4 50.8 55.9
1804 -4.5 -12.5 -4.3 -11.5
1805 -12.0 -6.2 -5.7 -10.7
1806 51.9 25.6 34.7 21.8
1807 -4.0 -6.4 -9.6 -4.9
1808 -11.5 -11.3 -10.9 -3.3
1809 39.7 45.9 40.5 51.2
1810 -5.4 -6.7 -10.4 -10.5
1811 32.2 52.3 48.6 35.6
1812 -10.2 -6.9 -3.5 -4.0
1813 -4.1 -5.0 -5.3 -3.5
1814 -5.5 -5.9 -4.4 -10.6
1815 -4.2 -3.3 -8.6 -12.1
1816 -9.7 -8.5 -11.1 -4.3
1817 -6.3 -9.2 -10.1 -9.1
1818 -9.8 -5.1 -6.8 -9.2
1819 -8.4 -8.4 -4.4 -10.5
1820 -11.3 -12.2 -7.4 -4.8
1821 24.3 24.3 28.2 23.9
1822 -12.1 -9.3 -8.5 -8.7
1823 -7.9 -10.9 -5.6 -10.4
1824 -10.8 -11.1 -5.9 -6.3
1825 20.3 47.1 50.2 48.8
1826 36.9 52.5 44.0 44.5
1827 58.4 30.5 28.8 27.3
1828 -11.0 -9.2 -9.1 -8.5
1829 27.4 31.0 28.4 41.2
1830 -5.4 -5.3 -10.7 -10.0
1831 -11.2 -7.1 -7.0 -10.2
1832 -3.8 -5.7 -4.7 -11.6
1833 -6.4 -12.4 -9.8 -5.6
1834 -10.6 -7.1 -6.3 -10.2
1835 -3.4 -4.4 -7.1 -9.0
1836 50.0 41.8 36.4 53.6
1837 -6.7 -7.1 -9.7 -8.6
1838 22.3 52.6 29.0 58.3
1839 21.1 58.0 27.7 40.6
1840 40.5 42.1 22.7 34.7
1841 -11.8 -6.6 -8.1 -5.0
1842 -10.2 -7.0 -6.9 -6.8
1843 29.2 57.6 29.0 36.9
1844 34.4 42.9 46.1 50.1
1845 52.2 57.2 52.6 44.9
1846 58.9 58.0 33.4 52.4
1847 -10.1 -12.2 -6.1 -9.8
1848 -8.9 -5.0 -10.8 -10.8
1849 -3.9 -8.6 -6.6 -9.3
1850 -8.1 -4.2 -4.0 -12.0
1851 51.8 35.0 22.5 29.2
1852 -10.2 -7.7 -8.6 -10.6
1853 31.8 38.7 44.6 30.8
1854 -12.4 -12.8 -5.3 -4.7
1855 -5.5 -5.0 -7.0 -10.6
1856 -7.8 -8.2 -6.9 -6.9
1857 -4.2 -6.3 -5.5 -6.6
1858 -6.4 -8.6 -7.7 -5.1
1859 56.0 39.3 31.0 22.6
1860 -11.2 -4.5 -7.9 -12.6
1861 -7.9 -12.8 -7.1 -3.7
1862 50.1 24.5 26.5 39.9
1863 -3.3 -12.2 -7.5 -9.3
1864 -9.9 -9.1 -11.1 -7.8
1865 -9.6 -5.7 -5.9 -4.4
1866 34.7 31.3 34.2 51.5
1867 -4.7 -9.7 -3.4 -10.6
1868 -9.4 -7.9 -9.5 -8.0
1869 -3.7 -6.6 -3.6 -3.6
1870 23.3 23.4 57.8 30.4
1871 -9.6 -5.5 -3.3 -6.6
1872 53.1 58.3 30.9 25.8
1873 -4.1 -5.7 -5.5 -7.1
1874 22.4 37.7 56.5 25.7
1875 -8.9 -9.6 -3.2 -5.7
1876 40.0 26.5 40.7 42.2
1877 -9.1 -4.6 -10.6 -7.4
1878 -6.4 -12.6 -12.0 -11.7
1879 43.9 42.0 57.5 49.3
1880 -12.8 -6.8 -8.7 -5.3
1881 32.6 47.9 36.7 53.5
1882 -8.5 -5.5 -5.3 -3.6
1883 -12.8 -5.8 -11.1 -8.3
1884 -9.7 -6.7 -6.7 -6.5
1885 -12.4 -8.2 -9.5 -4.0
1886 26.6 58.0 53.0 53.7
1887 57.0 41.2 42.1 45.4
1888 39.0 37.2 49.7 41.1
1889 -9.5 -7.8 -10.1 -8.7
1890 -9.3 -6.7 -4.5 -3.9
1891 -7.3 -8.3 -12.3 -11.2
1892 -3.3 -12.0 -12.4 -8.0
1893 -3.9 -5.2 -10.9 -7.7
1894 -9.7 -7.7 -8.9 -7.0
1895 -4.7 -12.0 -3.4 -5.1
1896 -11.8 -10.7 -5.3 -3.6
1897 45.3 52.0 33.0 56.7
1898 20.5 41.8 43.9 51.0
1899 30.7 47.3 34.7 21.2
1900 -8.1 -12.3 -10.6 -8.1
1901 -7.6 -5.8 -5.8 -10.9
1902 58.7 53.4 44.5 30.8
1903 21.5 58.2 45.6 22.0
1904 -4.8 -9.4 -8.4 -4.1
1905 -6.7 -5.8 -11.6 -5.9
1906 -6.4 -12.5 -6.2 -5.4
1907 43.8 49.4 35.1 24.5
1908 -6.7 -6.0 -7.8 -12.7
1909 -9.0 -7.0 -10.5 -10.6
1910 -4.9 -4.9 -8.2 -12.7
1911 48.8 54.8 37.0 37.7
1912 42.2 32.1 31.1 24.0
1913 -3.5 -3.3 -9.2 -11.9
1914 29.3 45.6 30.8 51.4
1915 52.1 29.2 30.2 28.1
1916 49.4 31.5 25.4 42.2
1917 35.4 41.8 30.9 55.1
1918 21.0 59.7 20.8 33.6
1919 49.8 30.2 37.9 25.4
1920 23.9 26.0 33.3 22.3
1921 -9.6 -5.6 -8.3 -9.9
1922 59.6 25.3 20.4 44.8
1923 -8.0 -4.7 -10.6 -7.9
1924 20.5 49.2 56.4 44.8
1925 -9.2 -9.2 -4.9 -3.4
1926 26.1 56.9 45.4 33.3
1927 -12.6 -7.4 -3.7 -5.4
1928 -4.5 -11.4 -9.0 -10.3
1929 -5.6 -9.6 -3.5 -8.4
1930 37.3 39.5 50.2 26.2
1931 37.1 50.5 34.7 26.4
1932 24.9 24.1 48.0 27.1
1933 39.2 43.6 45.1 32.1
1934 44.6 47.7 32.8 34.4
1935 38.2 30.3 59.9 26.5
1936 44.8 45.1 53.2 43.0
1937 -11.3 -5.2 -11.2 -10.5
1938 -10.9 -6.7 -9.8 -10.6
1939 -9.4 -8.4 -8.6 -6.7
1940 -8.5 -4.1 -9.0 -5.3
1941 -4.4 -6.0 -4.5 -9.2
1942 -10.7 -4.4 -3.7 -6.3
1943 -9.1 -5.7 -5.2 -11.1
1944 50.2 59.7 58.7 25.1
1945 -5.5 -12.5 -4.3 -8.0
1946 -9.5 -5.3 -5.6 -6.2
1947 -4.9 -7.3 -4.9 -4.5
1948 -8.1 -5.0 -4.5 -8.9
1949 22.0 52.7 48.1 47.8
1950 -3.5 -10.0 -3.4 -4.0
1951 46.3 59.1 59.0 24.6
1952 -8.9 -5.6 -6.1 -6.7
1953 41.9 52.2 57.2 30.3
1954 48.1 33.5 50.0 50.4
1955 38.3 53.1 39.1 37.5
1956 -4.4 -11.8 -9.7 -8.9
1957 -12.6 -5.3 -5.3 -9.1
1958 -10.1 -8.8 -12.4 -5.3
1959 -12.6 -8.6 -5.6 -4.7
1960 -6.3 -4.9 -6.3 -8.6
1961 51.5 22.7 44.1 54.1
1962 -6.9 -9.8 -8.0 -9.2
1963 -6.7 -4.1 -11.4 -4.5
1964 -6.4 -12.7 -6.9 -12.2
1965 40.0 50.5 46.5 37.5
1966 49.2 57.3 47.8 23.6
1967 -9.4 -9.8 -7.9 -6.1
1968 -4.6 -8.5 -3.8 -12.4
1969 -4.8 -12.7 -10.8 -4.3
1970 -6.5 -6.8 -11.9 -6.8
1971 29.0 50.6 50.2 58.6
1972 56.2 43.2 21.6 27.1
1973 28.1 56.6 22.1 22.4
1974 -9.8 -10.1 -12.2 -10.8
1975 31.6 21.0 56.4 50.8
1976 -11.7 -9.5 -5.1 -8.0
1977 -11.2 -3.3 -4.4 -9.0
1978 0.0 0.0 0.0 0.0
1979 -9.6 -8.0 -7.7 -11.6
1980 26.0 39.2 56.4 32.9
1981 -3.8 -4.4 -12.6 -3.4
1982 37.8 55.7 33.8 32.3
1983 41.3 47.0 22.2 58.7
1984 -8.3 -4.1 -3.6 -6.3
1985 -4.8 -8.2 -6.5 -10.0
1986 -3.3 -7.4 -3.6 -5.0
1987 -3.7 -9.0 -7.3 -8.8
1988 -8.3 -6.5 -9.1 -12.7
1989 51.9 44.7 30.5 46.2
1990 -6.8 -4.2 -11.5 -6.1
1991 32.9 52.4 24.7 33.4
1992 -9.8 -9.2 -11.2 -6.1
1993 -8.6 -11.8 -11.0 -10.9
1994 42.1 38.9 27.3 38.9
1995 48.2 56.8 31.0 38.4
1996 -9.3 -7.1 -7.7 -7.5
1997 -8.3 -3.5 -12.1 -10.1
1998 -4.4 -5.9 -6.3 -7.8
1999 -4.6 -5.9 -5.4 -8.6
2000 -10.2 -12.8 -10.9 -10.5
2001 40.1 26.0 56.1 58.4
2002 -10.1 -12.6 -12.3 -10.2
2003 41.1 51.6 30.2 26.6
2004 -10.9 -11.0 -10.3 -11.0
2005 -8.7 -8.8 -11.1 -6.0
2006 55.8 55.8 25.4 31.8
2007 -8.5 -6.3 -11.7 -3.4
2008 -4.9 -6.2 -6.9 -8.0
2009 -9.8 -4.6 -12.4 -7.0
2010 -6.4 -4.5 -10.8 -8.0
2011 25.5 30.1 34.0 31.5
2012 58.3 54.8 47.3 46.0
2013 -4.5 -9.1 -7.3 -11.8
2014 -10.5 -11.9 -5.9 -9.2
2015 38.4 47.4 31.3 37.6
2016 -4.4 -9.0 -5.5 -8.9
2017 -11.6 -11.6 -7.4 -12.5
2018 -8.3 -8.7 -11.4 -5.1
2019 42.9 36.8 29.4 23.2
2020 -10.8 -10.2 -5.9 -12.5
2021 -7.7 -8.3 -10.3 -8.8
2022 -4.8 -12.7 -8.0 -7.6
2023 -12.3 -4.0 -8.6 -3.7
2024 -7.4 -4.7 -10.1 -6.6
2025 42.3 56.8 59.2 45.1
2026 -8.1 -11.3 -9.8 -11.3
2027 -3.6 -10.9 -5.6 -4.0
2028 44.6 51.9 47.7 22.5
2029 23.5 42.8 57.3 45.4
2030 -5.4 -3.3 -10.8 -6.9
2031 57.5 58.1 28.8 47.7
2032 -3.4 -6.4 -4.0 -7.6
2033 -7.3 -8.6 -9.0 -9.0
2034 -5.6 -6.3 -10.8 -11.2
2035 -5.6 -12.3 -7.4 -4.7
2036 -10.4 -7.7 -10.4 -5.4
2037 39.4 27.9 27.7 43.9
2038 -8.2 -6.3 -7.6 -11.9
2039 -7.5 -12.8 -12.4 -12.3
2040 -7.2 -7.4 -8.5 -5.5
2041 -12.9 -9.3 -6.7 -9.5
2042 51.8 42.8 23.8 35.2
2043 -8.7 -11.3 -8.8 -5.3
2044 -4.6 -6.8 -11.1 -10.7
2045 -10.2 -5.3 -5.7 -7.1
2046 22.0 37.4 47.3 41.5
2047 40.5 49.7 38.9 55.9
2048 -9.5 -3.9 -9.1 -4.9
2049 51.8 53.8 50.5 27.6
2050 -4.5 -9.8 -11.3 -12.7
2051 -9.0 -10.7 -5.8 -5.7
2052 -11.0 -5.9 -10.4 -8.8
2053 -9.5 -6.9 -8.9 -12.0
2054 -9.1 -5.5 -7.2 -3.5
2055 0.0 0.0 0.0 0.0
2056 -9.3 -7.7 -11.5 -6.6
2057 -8.6 -10.4 -6.3 -10.0
2058 -6.8 -4.0 -7.0 -12.1
2059 33.2 22.1 35.5 56.8
2060 45.0 27.9 47.7 58.2
2061 -7.4 -12.7 -11.1 -10.9
2062 33.1 27.4 41.2 47.2
2063 57.4 44.6 31.4 27.7
2064 -9.8 -6.6 -8.5 -5.7
2065 22.7 36.7 30.0 49.2
2066 -7.1 -8.7 -10.7 -9.5
2067 54.8 55.9 54.0 34.9
2068 -10.3 -6.3 -7.0 -10.0
2069 24.3 48.4 45.6 59.9
2070 -10.0 -11.3 -7.6 -5.5
2071 31.9 20.4 56.2 45.5
2072 -8.1 -3.9 -8.7 -9.2
2073 -4.2 -11.7 -9.8 -12.4
2074 -5.1 -11.4 -7.1 -5.1
2075 -10.9 -9.3 -10.7 -10.3
2076 -11.5 -7.3 -6.1 -8.6
2077 -4.8 -10.1 -10.3 -11.6
2078 -9.6 -5.5 -4.0 -8.0
2079 27.2 54.8 28.1 46.0
2080 -9.9 -6.5 -10.6 -4.7
2081 -4.8 -3.3 -8.9 -12.3
2082 29.4 30.6 35.6 46.7
2083 49.5 20.6 33.9 49.0
2084 -8.5 -12.4 -4.5 -10.3
2085 -12.9 -9.8 -11.2 -11.5
2086 49.0 31.8 27.0 51.2
2087 -12.8 -4.7 -9.5 -10.1
2088 -12.9 -7.8 -10.1 -10.6
2089 39.3 47.4 39.2 51.8
2090 -7.4 -6.0 -10.5 -4.2
2091 32.7 45.6 31.3 30.9
2092 -12.0 -12.1 -6.8 -12.3
2093 -9.0 -3.7 -5.6 -9.5
2094 29.1 22.6 53.8 30.6
2095 -5.0 -3.6 -6.4 -11.6
2096 42.1 29.6 32.0 29.5
2097 -7.1 -6.5 -12.8 -12.4
2098 -10.1 -5.9 -8.4 -6.3
2099 -3.2 -7.3 -10.8 -3.8
2100 55.1 39.6 47.5 40.5
2101 52.6 58.7 58.8 55.7
2102 -12.1 -4.0 -9.1 -12.7
2103 20.0 48.2 44.6 54.2
2104 47.0 58.5 48.3 33.0
2105 -12.7 -6.3 -10.0 -7.3
2106 24.8 52.5 28.6 27.2
2107 50.5 27.1 53.9 24.1
2108 52.3 33.9 20.8 44.7
2109 48.3 50.7 32.3 31.8
2110 29.8 37.5 57.6 33.2
2111 -11.5 -7.5 -4.8 -11.4
2112 -12.0 -7.3 -7.1 -10.4
2113 -10.1 -8.5 -11.2 -9.4
2114 -6.0 -5.7 -6.0 -3.8
2115 -11.0 -6.4 -7.5 -9.4
2116 -10.2 -11.3 -12.7 -3.3
2117 -8.5 -12.8 -8.3 -11.6
2118 49.7 50.6 51.7 32.5
2119 -10.4 -9.6 -5.7 -11.6
2120 -7.7 -7.2 -8.7 -9.9
2121 -5.2 -10.4 -10.8 -11.2
2122 -9.7 -12.7 -8.5 -12.5
2123 0.0 0.0 0.0 0.0
2124 52.6 43.0 20.7 39.9
2125 30.6 43.9 51.0 37.8
2126 -9.1 -3.3 -9.0 -6.3
2127 -7.8 -7.1 -7.6 -5.2
2128 58.4 51.9 24.7 30.8
2129 -5.9 -9.0 -8.8 -9.9
2130 25.0 50.7 59.9 39.5
2131 45.0 55.7 26.3 49.7
2132 -4.5 -11.7 -6.4 -9.0
2133 23.2 39.9 37.3 60.0
2134 -10.6 -8.6 -4.0 -10.6
2135 -11.4 -11.2 -8.2 -4.7
2136 -4.1 -6.8 -9.7 -4.9
2137 -10.2 -11.7 -12.1 -9.3
2138 -11.8 -12.6 -12.6 -9.1
2139 50.7 32.8 51.2 30.7
2140 -5.0 -12.8 -3.9 -11.6
2141 -7.9 -12.2 -7.9 -4.6
2142 -12.9 -6.1 -4.6 -7.0
2143 37.7 46.7 28.2 54.9
2144 -4.7 -9.8 -3.4 -5.6
2145 -5.5 -9.7 -9.3 -9.4
2146 -8.5 -4.6 -8.0 -3.9
2147 -6.9 -7.8 -11.5 -5.1
2148 -11.7 -3.9 -3.5 -10.0
2149 -5.3 -10.2 -7.7 -3.3
2150 44.0 59.6 44.0 44.8
2151 28.7 39.9 42.5 34.5
2152 -5.6 -10.1 -3.4 -11.2
2153 -12.7 -4.7 -12.6 -6.2
2154 39.4 22.7 49.8 38.4
2155 42.0 49.4 37.4 26.4
2156 -5.8 -10.3 -8.1 -4.1
2157 32.6 49.9 57.1 36.8
2158 -6.2 -3.3 -11.4 -8.6
2159 -10.1 -9.0 -4.8 -10.3
2160 30.0 32.2 37.7 56.6
2161 44.5 51.6 43.9 21.2
2162 -10.7 -10.2 -7.5 -5.8
2163 58.6 24.6 43.6 37.9
2164 23.3 44.5 58.0 47.1
2165 -5.9 -10.0 -5.4 -9.2
2166 -5.4 -9.2 -3.3 -7.9
2167 34.6 30.7 42.9 29.7
2168 -7.8 -3.3 -9.5 -6.1
2169 41.7 32.4 53.9 26.2
2170 24.1 24.2 41.3 31.7
2171 -10.9 -10.5 -8.8 -8.8
2172 30.9 24.7 43.3 59.5
2173 -10.4 -11.7 -3.7 -12.2
2174 -6.3 -6.6 -4.9 -4.6
2175 -8.7 -10.4 -7.1 -11.4
2176 -12.5 -7.2 -9.3 -10.8
2177 -9.5 -12.5 -3.4 -8.6
2178 41.7 58.6 40.7 26.6
2179 34.6 56.4 49.7 56.0
2180 40.1 38.6 32.3 48.9
2181 -10.9 -6.1 -9.3 -5.7
2182 26.5 54.6 45.0 26.0
2183 40.2 51.8 29.7 43.2
2184 -9.2 -9.8 -5.4 -4.9
2185 49.8 24.9 43.0 57.2
2186 50.1 32.5 46.8 40.3
2187 23.4 37.5 36.1 42.4
2188 -10.7 -4.8 -11.9 -9.3
2189 -9.4 -10.9 -5.8 -8.6
2190 42.9 24.4 54.1 24.3
2191 -9.7 -6.6 -7.0 -11.6
2192 -12.1 -5.9 -6.9 -7.5
2193 -8.0 -4.1 -12.7 -4.2
2194 22.2 28.2 49.9 33.9
2195 36.9 56.6 23.0 29.8
2196 39.2 31.1 25.3 20.6
2197 -7.9 -10.2 -8.2 -3.9
2198 31.0 32.2 24.6 28.4
2199 57.6 23.6 24.3 38.5
2200 -9.6 -6.5 -3.5 -11.3
2201 37.3 48.8 35.8 25.1
2202 -12.1 -11.8 -12.2 -9.3
2203 -11.5 -6.7 -10.5 -3.5
2204 49.4 59.5 59.1 58.6
2205 52.5 38.1 53.7 38.2
2206 38.8 39.4 47.5 42.8
2207 -11.5 -4.0 -3.7 -10.7
2208 33.1 45.5 37.2 45.5
2209 20.6 27.4 59.8 34.3
2210 -7.1 -7.1 -4.2 -7.6
2211 -5.0 -9.3 -8.3 -7.4
2212 -12.9 -12.7 -10.9 -11.9
2213 -11.1 -12.8 -8.5 -10.0
2214 -8.3 -10.7 -11.5 -11.0
2215 -4.6 -6.3 -4.1 -11.3
2216 -6.7 -11.6 -6.2 -3.5
2217 -3.5 -8.9 -5.0 -10.6
2218 -11.8 -12.1 -9.4 -9.8
2219 35.8 32.4 36.5 54.9
2220 55.6 57.6 54.1 41.1
2221 -12.5 -8.1 -8.6 -11.8
2222 -9.9 -4.7 -11.7 -5.2
2223 -11.2 -8.8 -6.4 -6.2
2224 -12.3 -4.8 -8.9 -4.4
2225 -11.3 -9.5 -7.0 -7.7
2226 -12.1 -10.3 -9.5 -8.2
2227 24.5 37.4 21.2 41.9
2228 -7.2 -8.2 -3.5 -7.3
2229 59.9 46.0 20.1 35.3
2230 -11.8 -8.9 -9.9 -9.3
2231 50.4 59.7 24.1 55.5
2232 45.1 51.3 42.3 55.3
2233 -5.2 -8.0 -7.3 -9.7
2234 49.9 51.2 39.5 20.1
2235 -12.7 -6.3 -6.3 -8.9
2236 -8.2 -12.2 -4.2 -10.0
2237 43.8 53.0 53.9 27.4
2238 33.4 31.2 52.5 44.7
2239 -4.4 -8.4 -8.0 -8.6
2240 -9.9 -8.9 -12.6 -12.5
2241 28.4 47.0 35.7 55.6
2242 -7.4 -12.7 -10.8 -12.0
2243 -11.7 -12.5 -9.7 -10.2
2244 -5.3 -5.8 -11.8 -7.8
2245 -11.1 -7.3 -10.1 -11.0
2246 -3.6 -7.3 -6.0 -12.7
2247 -7.5 -8.1 -7.6 -7.6
2248 -6.5 -6.8 -5.0 -9.2
2249 51.7 23.7 56.8 33.6
2250 45.0 31.1 52.1 23.7
2251 26.8 25.5 38.3 35.3
2252 -3.3 -3.9 -7.8 -4.6
2253 -9.8 -12.3 -4.3 -9.8
2254 -12.2 -9.6 -12.1 -5.9
2255 -8.3 -8.3 -9.6 -12.1
2256 59.1 50.1 28.3 51.6
2257 -12.1 -4.5 -4.8 -9.4
2258 -6.2 -5.5 -9.6 -12.7
2259 -8.3 -10.4 -4.8 -9.4
2260 -11.6 -8.8 -9.4 -8.3
2261 -9.5 -5.8 -3.3 -7.6
2262 55.3 25.2 55.3 24.1
2263 -11.3 -4.7 -6.0 -8.0
2264 24.0 40.3 33.4 56.0
2265 -12.7 -6.3 -4.1 -12.0
2266 53.4 31.8 45.4 47.2
2267 54.6 24.5 46.1 30.2
2268 -8.0 -10.2 -4.8 -4.3
2269 43.3 59.7 58.1 43.9
2270 -7.9 -8.1 -12.1 -10.9
2271 57.8 29.9 38.2 44.8
2272 -9.9 -6.2 -5.7 -8.6
2273 51.8 41.6 54.7 40.6
2274 -11.9 -3.7 -5.2 -6.4
2275 -8.9 -7.9 -11.4 -7.3
2276 -6.3 -12.3 -12.0 -4.5
2277 58.9 36.7 30.9 49.7
2278 56.2 52.6 25.4 57.6
2279 -8.7 -7.5 -6.8 -7.0
2280 36.1 35.2 38.5 57.5
2281 25.4 27.6 48.8 52.6
2282 -7.0 -3.6 -10.9 -6.7
2283 -10.5 -6.9 -12.8 -10.4
2284 32.1 40.1 46.0 57.0
2285 51.8 46.7 44.1 49.6
2286 49.5 22.8 33.5 28.7
2287 -7.9 -7.8 -9.4 -4.8
2288 -7.7 -8.2 -4.6 -11.8
2289 -12.9 -11.6 -7.2 -5.0
2290 -8.2 -7.8 -8.0 -8.6
2291 36.8 48.4 28.8 26.2
2292 59.3 59.2 33.4 37.7
2293 23.6 41.7 37.9 34.2
2294 -4.8 -8.3 -12.8 -8.0
2295 -7.7 -6.6 -11.8 -5.3
2296 -12.3 -11.9 -4.8 -9.4
2297 24.8 20.6 32.2 56.1
2298 -9.0 -7.8 -3.8 -10.5
2299 -4.8 -9.0 -6.4 -4.9
2300 -5.7 -3.8 -6.2 -9.2
2301 52.5 47.0 37.7 54.6
2302 32.5 37.4 22.0 29.0
2303 -5.3 -7.8 -5.8 -5.3
2304 -3.8 -4.3 -10.6 -10.3
2305 41.5 51.7 50.2 27.1
2306 -5.8 -4.7 -10.3 -3.8
2307 22.7 59.6 27.1 40.7
2308 -11.8 -8.5 -4.8 -11.3
2309 40.6 32.7 48.3 43.3
2310 -10.8 -12.5 -4.0 -3.9
2311 -7.5 -9.6 -10.6 -12.1
2312 -8.8 -3.3 -11.1 -11.5
2313 54.7 24.4 29.9 20.4
2314 -8.2 -12.6 -8.7 -4.5
2315 -8.6 -11.7 -11.1 -3.9
2316 25.7 52.7 56.8 44.4
2317 -8.6 -6.7 -10.5 -3.9
2318 -9.0 -5.5 -10.8 -12.4
2319 -11.6 -10.6 -4.4 -6.7
2320 41.6 50.3 58.1 40.0
2321 59.6 25.8 26.2 58.0
2322 43.7 32.7 31.4 22.1
2323 -12.4 -8.1 -12.5 -3.9
2324 21.8 39.0 54.9 31.9
2325 -5.6 -10.7 -10.2 -4.1
2326 56.4 45.9 36.1 43.2
2327 -12.8 -5.4 -7.0 -12.1
2328 -3.3 -7.1 -8.9 -12.5
2329 58.7 28.6 33.5 51.3
2330 22.7 27.7 53.7 56.0
2331 44.9 23.8 34.9 46.2
2332 41.1 44.1 49.9 38.8
2333 -3.7 -6.7 -9.8 -9.1
2334 -11.7 -11.7 -7.7 -11.8
2335 -5.9 -3.6 -11.7 -7.5
2336 -5.1 -7.2 -9.1 -11.3
2337 53.8 39.1 21.4 37.7
2338 -4.6 -5.5 -12.3 -5.8
2339 37.7 27.9 47.2 36.8
2340 -11.8 -11.2 -6.7 -3.7
2341 50.5 48.3 55.2 36.6
2342 34.1 34.2 50.1 42.1
2343 49.4 37.8 43.8 56.3
2344 -6.6 -6.1 -11.2 -7.5
2345 -10.3 -5.4 -11.4 -7.5
2346 50.6 52.0 38.0 51.5
2347 -5.6 -11.6 -9.0 -7.1
2348 -4.8 -12.5 -10.4 -6.0
2349 58.2 29.7 57.3 57.4
2350 31.3 46.8 28.7 49.6
2351 -7.0 -12.7 -3.5 -9.2
2352 -4.6 -4.1 -7.1 -9.1
2353 50.9 28.5 40.0 37.4
2354 -3.2 -8.3 -3.5 -7.0
2355 -4.3 -11.6 -8.2 -11.9
2356 -3.9 -11.6 -6.1 -7.6
2357 -12.9 -5.5 -10.9 -12.3
2358 26.5 57.2 49.8 52.5
2359 -4.0 -7.5 -12.7 -9.1
2360 42.1 30.1 50.9 44.0
2361 24.4 34.8 21.3 26.6
2362 49.3 56.7 40.6 40.3
2363 24.3 26.2 32.1 33.1
2364 23.9 44.5 60.0 30.6
2365 -11.3 -10.7 -5.0 -11.2
2366 -3.3 -4.1 -3.8 -8.4
2367 -12.4 -7.8 -9.2 -12.0
2368 22.0 32.8 34.0 49.1
2369 54.9 43.4 53.3 45.1
2370 59.1 22.1 44.2 36.2
2371 56.4 37.8 27.8 56.3
2372 -8.7 -3.8 -8.4 -6.0
2373 49.7 28.0 35.5 42.2
2374 27.5 21.8 59.6 44.6
2375 47.5 56.7 32.4 25.3
2376 43.2 54.8 39.8 49.8
2377 26.0 25.2 48.4 26.1
2378 50.6 31.6 39.4 48.2
2379 33.5 30.4 52.7 28.6
2380 -4.3 -5.2 -11.5 -8.2
2381 22.4 30.1 36.2 27.9
2382 -7.2 -12.7 -6.1 -6.0
2383 -8.8 -10.8 -11.0 -5.1
2384 20.7 53.5 45.1 27.7
2385 -8.3 -10.4 -3.8 -8.6
2386 38.4 43.0 42.6 26.3
2387 -10.5 -9.0 -12.4 -9.2
2388 41.9 59.7 49.4 39.3
2389 42.2 59.0 56.9 34.6
2390 52.9 23.0 58.6 41.2
2391 27.1 34.0 20.2 51.6
2392 -9.1 -5.8 -3.6 -11.0
2393 39.0 27.2 31.6 42.0
2394 36.8 49.8 39.1 34.5
2395 -11.4 -6.6 -7.7 -9.1
2396 -8.6 -4.9 -3.2 -8.1
2397 -9.1 -11.6 -6.1 -3.3
2398 -10.4 -5.6 -11.8 -11.7
2399 -4.4 -7.5 -7.0 -5.4
2400 30.3 55.0 54.6 25.8
2401 -4.6 -8.0 -8.0 -6.4
2402 21.6 36.8 40.6 20.1
2403 39.5 49.7 37.3 56.8
2404 -4.4 -4.2 -6.0 -6.6
2405 46.3 48.3 59.8 48.1
2406 -12.3 -11.8 -9.3 -5.1
2407 47.9 59.0 29.3 58.4
2408 22.0 23.6 56.9 29.9
2409 58.9 25.5 22.5 22.8
2410 59.2 51.8 30.0 54.0
2411 -10.3 -6.4 -11.0 -9.8
2412 -3.8 -4.6 -11.9 -9.2
2413 -11.2 -6.8 -3.5 -7.4
2414 24.2 50.7 23.8 21.8
2415 -8.5 -4.6 -10.8 -11.7
2416 -10.0 -10.4 -7.1 -3.2
2417 -8.7 -6.7 -5.3 -4.2
2418 -5.0 -10.0 -12.0 -5.7
2419 -8.4 -10.1 -9.9 -3.7
2420 -7.8 -11.3 -7.0 -7.5
2421 23.9 59.4 49.5 43.8
2422 23.1 44.3 23.0 29.0
2423 37.0 56.8 28.3 42.2
2424 49.7 53.2 25.4 35.9
2425 -5.5 -7.9 -10.8 -7.0
2426 50.3 20.2 41.5 39.4
2427 32.9 27.6 43.6 30.9
2428 -10.5 -10.6 -10.1 -6.3
2429 -3.9 -7.8 -12.5 -8.9
2430 -11.0 -11.8 -5.4 -9.8
2431 35.4 30.7 47.3 32.8
2432 43.9 45.8 20.4 40.6
2433 -5.9 -5.5 -5.8 -11.3
2434 -3.8 -9.4 -8.0 -6.6
2435 -4.2 -11.6 -9.5 -6.9
2436 -12.2 -4.1 -6.6 -9.5
2437 -6.2 -5.5 -5.5 -7.8
2438 32.1 22.3 33.4 54.2
2439 -8.9 -12.7 -11.3 -6.5
2440 -5.6 -11.1 -3.9 -5.6
2441 41.9 41.0 48.2 40.2
2442 -10.0 -11.4 -8.4 -8.5
2443 -6.3 -5.8 -5.8 -6.8
2444 -11.9 -4.8 -8.8 -9.9
2445 55.1 34.2 33.3 56.4
2446 39.9 54.8 22.8 25.1
2447 34.7 55.5 46.4 53.1
2448 0.0 0.0 0.0 0.0
2449 38.9 58.6 38.2 44.0
2450 -11.3 -6.8 -10.1 -6.6
2451 44.6 30.7 29.6 25.4
2452 56.9 34.1 39.2 26.6
2453 40.4 58.3 51.5 26.5
2454 -10.1 -11.2 -4.3 -8.8
2455 -9.8 -7.6 -10.3 -10.9
2456 -4.0 -9.7 -5.8 -10.3
2457 -4.4 -10.4 -11.8 -9.4
2458 -8.9 -3.6 -7.6 -10.0
2459 -8.1 -10.7 -4.8 -3.8
2460 -12.5 -3.9 -6.5 -8.5
2461 -9.0 -6.4 -11.4 -11.3
2462 -10.8 -11.6 -10.2 -12.7
2463 -4.3 -9.8 -9.1 -4.9
2464 30.3 53.9 53.8 22.9
2465 23.6 32.1 31.4 47.6
2466 -7.2 -12.5 -9.1 -6.7
2467 -9.0 -10.7 -11.2 -8.2
2468 -12.2 -4.2 -10.1 -8.1
2469 -3.2 -8.2 -7.3 -7.8
2470 -10.4 -5.2 -7.0 -10.9
2471 -7.1 -6.7 -7.4 -11.0
2472 31.8 42.1 56.8 55.3
2473 -5.8 -7.3 -8.2 -3.2
2474 -6.3 -3.8 -11.4 -12.1
2475 44.4 32.4 58.3 37.7
2476 -6.9 -7.3 -5.3 -5.3
2477 45.5 33.1 32.0 27.5
2478 -4.5 -3.8 -8.0 -11.4
2479 46.3 46.3 59.0 39.1
2480 22.5 24.9 34.3 44.0
2481 20.9 51.1 31.2 56.4
2482 -6.4 -11.8 -7.4 -5.9
2483 -12.0 -4.4 -6.0 -11.2
2484 -7.6 -6.4 -10.1 -8.1
2485 30.2 36.4 47.0 25.6
2486 -3.9 -11.3 -7.6 -4.9
2487 38.5 50.1 54.9 24.2
2488 56.2 22.1 24.3 29.1
2489 33.6 41.5 24.9 49.9
2490 -8.8 -3.4 -7.7 -9.7
2491 -10.4 -9.0 -11.1 -8.6
2492 -11.1 -11.9 -7.5 -8.7
2493 58.8 43.0 25.1 30.5
2494 44.0 28.1 39.0 41.2
2495 22.9 58.0 37.8 53.8
2496 28.8 52.1 38.8 21.6
2497 -10.1 -7.1 -9.8 -12.3
2498 -12.8 -6.1 -9.6 -10.5
2499 -3.9 -5.6 -8.9 -10.9
2500 23.6 22.7 49.9 42.9
2501 -11.0 -10.2 -5.1 -10.1
2502 -8.8 -9.3 -11.3 -5.8
2503 -4.2 -8.6 -6.5 -9.9
2504 -10.3 -11.9 -3.7 -9.1
2505 -8.7 -6.2 -8.3 -6.9
2506 -7.4 -11.0 -12.3 -4.2
2507 46.4 39.9 34.6 57.8
2508 33.2 22.7 45.8 44.1
2509 -8.6 -10.6 -12.6 -10.8
2510 -6.4 -8.9 -6.1 -8.8
2511 -10.0 -7.6 -9.2 -6.7
2512 51.6 47.2 26.5 29.1
2513 -4.6 -4.6 -10.3 -3.4
2514 -11.0 -7.6 -4.9 -9.3
2515 -10.0 -8.6 -9.5 -4.0
2516 -7.7 -6.9 -7.6 -11.2
2517 -8.0 -5.6 -8.0 -4.8
2518 -4.0 -8.5 -5.0 -11.8
2519 -5.1 -7.4 -12.3 -12.7
2520 -7.8 -7.7 -9.8 -7.1
2521 -5.7 -4.3 -3.7 -5.5
2522 -7.1 -12.6 -9.7 -4.9
2523 -9.6 -4.5 -9.5 -9.6
2524 -10.1 -8.1 -8.0 -4.3
2525 37.4 33.8 38.5 43.9
2526 -4.2 -3.4 -6.1 -9.7
2527 53.7 42.1 55.8 27.1
2528 -11.7 -4.4 -10.4 -11.1
2529 -9.4 -9.8 -5.8 -8.6
2530 38.4 54.2 38.7 51.4
2531 -8.2 -11.8 -5.3 -8.3
2532 -10.3 -9.5 -3.6 -9.8
2533 -8.1 -8.8 -10.0 -10.4
2534 -4.9 -5.8 -11.6 -7.8
2535 42.4 39.6 35.3 56.4
2536 -9.6 -6.5 -6.4 -4.4
2537 -5.3 -10.6 -7.9 -4.4
2538 -9.4 -7.9 -4.0 -6.8
2539 -3.9 -11.2 -3.7 -12.0
2540 -5.2 -8.0 -3.6 -4.0
2541 42.9 45.7 52.0 33.0
2542 37.6 59.1 29.8 31.1
2543 -7.1 -8.6 -9.7 -12.2
2544 25.3 23.7 29.7 35.8
2545 -6.2 -9.5 -6.5 -7.7
2546 50.6 21.4 22.4 37.3
2547 25.5 50.4 44.3 22.6
2548 57.0 43.5 42.9 43.6
2549 25.3 37.7 45.0 29.8
2550 35.5 28.4 45.9 26.0
2551 -11.6 -11.4 -4.1 -3.6
2552 -9.7 -4.2 -6.1 -3.2
2553 46.5 38.4 33.0 44.3
2554 27.9 42.2 35.7 58.2
2555 -7.7 -3.8 -5.4 -4.5
2556 43.0 35.5 22.7 35.4
2557 44.7 25.0 53.0 36.6
2558 -8.5 -3.9 -5.4 -9.6
2559 -9.3 -9.7 -10.8 -3.6
2560 -8.0 -5.1 -7.4 -4.8
2561 -11.0 -12.0 -4.6 -11.0
2562 -6.5 -7.7 -9.3 -6.8
2563 -9.3 -11.5 -5.1 -9.8
2564 -10.3 -6.2 -11.6 -11.7
2565 -10.4 -9.8 -6.6 -7.7
2566 -11.0 -12.2 -5.3 -8.1
2567 -8.9 -8.5 -8.7 -6.2
2568 28.6 29.4 25.6 34.0
2569 56.6 59.1 38.7 51.9
2570 -11.3 -5.7 -6.3 -7.4
2571 -6.9 -8.9 -11.4 -7.6
2572 41.6 51.9 27.4 33.4
2573 35.3 32.4 32.2 43.7
2574 22.2 54.2 53.7 47.3
2575 -4.9 -4.4 -10.8 -4.7
2576 46.1 26.0 43.9 33.0
2577 -5.2 -10.3 -5.5 -9.1
2578 48.2 56.2 39.3 23.5
2579 30.6 34.4 55.1 38.2
2580 -11.1 -10.5 -5.8 -11.5
2581 -7.7 -11.4 -7.4 -10.7
2582 -8.1 -8.5 -11.6 -4.8
2583 23.7 31.4 45.8 39.7
2584 20.7 57.0 49.9 32.3
2585 24.2 47.8 45.4 57.4
2586 31.7 47.3 51.5 42.1
2587 -12.1 -11.0 -8.9 -11.4
2588 -5.5 -7.0 -8.3 -11.3
2589 -11.2 -9.5 -8.3 -9.9
2590 -3.8 -12.1 -8.0 -5.5
2591 41.1 34.0 51.3 34.8
2592 -8.7 -5.5 -7.0 -10.1
2593 -4.7 -6.4 -3.5 -6.5
2594 39.7 56.4 39.2 23.3
2595 57.5 50.7 57.2 43.7
2596 -7.5 -5.4 -7.2 -6.8
2597 23.1 36.4 36.0 57.7
2598 -9.7 -12.3 -5.9 -9.1
2599 48.2 52.2 36.5 59.2
2600 -7.2 -9.6 -12.5 -3.9
2601 40.1 35.0 58.7 35.6
2602 57.9 20.9 53.1 36.1
2603 -9.7 -3.8 -12.5 -3.2
2604 37.5 28.9 52.6 52.1
2605 -7.5 -11.5 -3.9 -10.2
2606 -7.0 -12.7 -10.9 -11.8
2607 -12.1 -4.1 -11.3 -9.8
2608 -7.9 -11.6 -12.0 -12.7
2609 -6.6 -10.5 -4.2 -5.3
2610 -3.2 -12.7 -11.8 -10.1
2611 48.7 48.7 27.8 55.2
2612 20.8 33.1 30.3 55.5
2613 55.1 34.4 26.4 20.3
2614 -3.8 -8.4 -10.5 -8.6
2615 37.5 47.5 37.7 38.8
2616 -6.7 -7.2 -10.8 -3.2
2617 -8.4 -6.4 -12.2 -5.5
2618 23.9 55.1 42.0 30.0
2619 -6.6 -9.8 -8.7 -4.0
2620 -10.3 -8.8 -9.6 -5.2
2621 34.8 58.1 50.0 36.2
2622 -12.0 -9.7 -4.6 -8.1
2623 34.8 46.4 45.4 51.0
2624 -11.2 -12.4 -4.3 -10.7
2625 43.1 58.4 32.4 25.9
2626 -3.3 -5.4 -10.6 -7.3
2627 39.0 34.5 31.3 38.8
2628 -7.6 -4.0 -4.1 -10.3
2629 36.0 31.6 53.1 27.6
2630 -7.8 -4.0 -8.9 -4.6
2631 -8.8 -10.5 -4.6 -7.8
2632 54.9 42.1 21.8 59.1
2633 36.2 32.6 52.2 21.0
2634 -5.1 -12.8 -7.7 -5.3
2635 45.8 34.6 29.7 39.2
2636 44.0 32.2 40.3 54.4
2637 -7.3 -3.5 -5.7 -6.7
2638 0.0 0.0 0.0 0.0
2639 -8.6 -9.7 -8.5 -11.7
2640 58.5 36.0 37.9 38.4
2641 -8.9 -8.9 -11.9 -4.3
2642 -8.1 -3.3 -3.8 -11.9
2643 59.6 58.3 35.9 34.8
2644 -4.2 -10.7 -6.3 -7.7
2645 -10.8 -12.1 -10.2 -5.8
2646 54.2 43.9 54.9 48.6
2647 31.8 41.9 52.7 42.5
2648 -11.7 -4.1 -9.7 -5.2
2649 -7.3 -6.9 -11.2 -11.7
2650 -3.2 -8.8 -10.2 -5.6
2651 21.6 30.6 51.6 24.0
2652 45.2 50.6 38.1 26.2
2653 59.3 25.1 45.9 39.6
2654 50.8 21.8 48.1 25.3
2655 55.2 24.7 39.4 21.6
2656 46.6 39.6 56.0 32.9
2657 22.5 41.6 40.3 41.2
2658 -12.0 -9.7 -8.1 -6.8
2659 26.8 37.5 36.4 37.4
2660 49.6 43.6 47.3 32.4
2661 -9.1 -12.5 -6.4 -8.7
2662 23.4 40.3 38.5 21.3
2663 30.4 26.5 44.3 54.5
2664 -8.0 -4.6 -10.6 -6.7
2665 59.0 20.5 31.6 46.9
2666 33.0 52.5 54.2 36.1
2667 20.4 52.9 31.7 29.4
2668 49.6 45.3 43.2 25.5
2669 31.6 36.0 24.0 55.0
2670 22.5 43.3 21.4 35.2
2671 -8.5 -5.9 -5.7 -9.2
2672 55.1 45.1 24.4 38.6
2673 -8.9 -10.9 -3.5 -8.5
2674 22.8 54.6 30.3 48.8
2675 28.4 33.8 52.0 20.5
2676 -5.1 -10.9 -10.8 -7.7
2677 -4.1 -7.4 -3.5 -5.9
2678 -6.1 -7.3 -6.5 -11.4
2679 -8.9 -10.5 -10.1 -5.7
2680 -8.3 -4.7 -8.0 -12.7
2681 39.9 57.4 32.9 22.8
2682 -10.8 -7.1 -7.2 -6.1
2683 49.0 28.8 34.8 37.8
2684 -7.4 -6.1 -9.6 -9.2
2685 23.6 53.8 57.7 55.9
2686 28.2 53.4 59.0 42.7
2687 -7.9 -3.8 -11.4 -10.9
2688 -7.3 -4.4 -3.6 -10.2
2689 -9.4 -3.7 -12.1 -10.9
2690 -7.4 -7.0 -5.4 -9.9
2691 -5.1 -6.8 -12.1 -7.0
2692 -12.4 -11.4 -8.8 -3.7
2693 -10.7 -4.8 -5.5 -12.0
2694 41.7 31.8 25.9 44.2
2695 21.9 21.9 49.4 45.4
2696 -10.2 -11.4 -9.6 -7.4
2697 -12.1 -4.8 -10.4 -4.9
2698 38.4 44.9 33.6 44.7
2699 -6.1 -7.3 -11.4 -12.7
2700 25.7 26.2 47.5 48.5
2701 33.7 26.9 54.0 36.0
2702 -6.7 -4.6 -7.9 -11.6
2703 23.1 40.5 25.2 26.4
2704 0.0 0.0 0.0 0.0
2705 -5.8 -3.9 -8.2 -5.1
2706 46.7 39.4 21.0 42.2
2707 46.3 40.2 28.0 28.5
2708 -5.5 -12.0 -10.6 -5.5
2709 -10.5 -10.2 -8.9 -9.4
2710 34.3 25.1 50.7 26.6
2711 -7.2 -8.4 -7.4 -5.7
2712 48.2 45.5 26.7 40.3
2713 20.3 24.2 20.1 54.5
2714 -8.7 -6.3 -4.3 -4.0
2715 52.7 51.3 37.4 39.8
2716 -5.9 -12.2 -5.7 -10.0
2717 -3.3 -3.3 -10.3 -10.0
2718 29.8 23.1 59.7 27.7
2719 -4.3 -10.2 -11.4 -5.2
2720 -4.0 -8.0 -12.4 -10.8
2721 45.3 39.5 21.8 37.7
2722 -4.5 -7.2 -4.6 -11.0
2723 51.5 22.7 41.9 49.0
2724 24.3 45.9 22.5 33.8
2725 -12.0 -9.8 -3.5 -3.6
2726 50.4 36.3 32.3 35.8
2727 -4.9 -11.4 -8.2 -10.8
2728 -6.3 -4.9 -3.7 -11.5
2729 -10.6 -5.1 -7.5 -9.9
2730 23.5 55.8 20.8 22.5
2731 20.0 51.5 43.2 21.7
2732 47.6 38.3 31.7 33.1
2733 36.4 24.1 51.2 41.7
2734 -3.3 -8.8 -8.8 -8.7
2735 47.1 45.8 51.0 32.2
2736 -12.1 -12.1 -7.3 -7.6
2737 -12.8 -8.8 -3.3 -11.4
2738 -6.5 -7.9 -12.0 -6.9
2739 -6.9 -5.1 -3.6 -12.4
2740 27.3 55.1 20.7 45.9
2741 24.3 20.6 40.5 43.5
2742 59.4 27.4 53.6 42.1
2743 29.1 29.8 27.2 59.8
2744 47.0 24.9 20.4 41.5
2745 58.2 23.4 42.5 36.3
2746 -7.2 -10.6 -9.5 -5.4
2747 -9.9 -6.2 -7.1 -8.3
2748 -9.5 -9.9 -9.5 -9.9
2749 -7.7 -11.0 -8.8 -10.5
2750 -11.8 -8.1 -4.9 -5.8
2751 -6.9 -8.5 -7.5 -12.3
2752 -12.9 -8.2 -11.1 -5.0
2753 -5.8 -11.9 -12.1 -4.1
2754 -7.3 -11.4 -11.4 -5.1
2755 58.6 50.5 45.6 49.4
2756 59.3 40.0 60.0 54.7
2757 -9.6 -8.5 -9.0 -6.0
2758 -5.1 -7.7 -3.7 -3.3
2759 -6.6 -10.9 -11.2 -5.2
2760 -3.9 -4.6 -12.1 -11.5
2761 -5.3 -9.5 -6.2 -10.9
2762 45.9 58.9 43.4 21.1
2763 -9.8 -12.7 -4.5 -6.1
2764 46.6 35.7 25.2 24.4
2765 52.5 50.2 32.4 46.0
2766 46.7 50.6 43.4 54.9
2767 57.6 22.6 42.6 41.6
2768 -5.7 -5.7 -9.5 -6.3
2769 -8.9 -7.8 -5.1 -12.1
2770 54.8 24.7 45.6 34.7
2771 54.3 55.6 45.4 38.2
2772 -3.9 -10.0 -8.1 -9.6
2773 -7.4 -4.5 -4.2 -6.3
2774 0.0 0.0 0.0 0.0
2775 58.9 43.8 34.3 54.2
2776 -5.6 -8.4 -12.3 -6.9
2777 57.6 34.1 43.4 30.1
2778 -5.3 -9.5 -11.3 -9.0
2779 -6.2 -6.9 -10.2 -7.0
2780 35.8 34.1 29.1 55.5
2781 -3.3 -11.9 -8.6 -11.4
2782 56.8 42.4 27.2 26.7
2783 45.8 49.1 56.5 47.7
2784 -5.0 -6.8 -5.7 -5.4
2785 -12.7 -4.0 -5.9 -10.3
2786 56.2 43.9 46.5 52.7
2787 21.1 58.5 51.2 44.5
2788 -12.0 -11.4 -12.5 -6.8
2789 44.2 22.3 27.9 28.7
2790 27.2 22.2 42.5 46.2
2791 -4.9 -5.0 -7.6 -7.7
2792 53.5 49.2 58.0 28.3
2793 -11.4 -11.5 -6.9 -3.5
2794 30.7 40.6 35.0 26.7
2795 -7.2 -7.2 -4.0 -9.4
2796 58.3 54.8 59.5 27.5
2797 48.5 25.7 52.4 29.6
2798 58.6 32.7 33.7 40.8
2799 48.6 53.6 31.5 53.6
2800 -9.7 -7.4 -8.5 -7.4
2801 -5.8 -8.4 -8.2 -8.4
2802 24.8 37.9 59.7 35.0
2803 -10.0 -11.6 -9.4 -10.5
2804 50.5 32.4 47.4 58.9
2805 -10.5 -5.7 -9.2 -4.6
2806 58.6 48.6 55.9 32.2
2807 28.8 47.4 23.1 32.9
2808 34.3 56.1 49.4 40.6
2809 -4.0 -9.7 -3.6 -7.3
2810 37.7 41.9 34.2 36.3
2811 -8.0 -8.7 -12.6 -10.1
2812 -12.1 -4.3 -6.1 -7.4
2813 -11.2 -7.9 -10.4 -12.0
2814 -8.3 -11.2 -12.3 -9.3
2815 -8.5 -4.5 -3.4 -3.6
2816 -3.9 -4.8 -6.8 -5.2
2817 -8.4 -8.4 -4.2 -4.6
2818 55.4 45.7 35.7 33.2
2819 46.3 51.4 53.4 32.9
2820 -6.4 -12.8 -3.5 -9.0
2821 -5.5 -10.3 -10.1 -12.6
2822 -10.5 -11.5 -3.5 -8.7
2823 38.1 59.3 22.9 46.9
2824 54.8 48.6 49.7 57.4
2825 -11.2 -9.8 -9.5 -11.0
2826 38.6 50.9 46.6 43.6
2827 -5.7 -4.0 -11.8 -4.8
2828 22.7 40.9 37.2 25.0
2829 27.1 25.9 30.9 20.0
2830 -12.5 -9.7 -9.8 -10.5
2831 -5.4 -4.8 -6.5 -10.6
2832 -6.8 -6.4 -9.0 -12.1
2833 39.2 31.5 24.1 59.5
2834 -9.5 -10.4 -7.4 -8.2
2835 -12.6 -7.1 -6.3 -8.3
2836 -3.3 -10.6 -9.7 -12.0
2837 -5.4 -6.5 -12.5 -8.6
2838 21.4 59.9 50.8 58.5
2839 36.9 21.2 45.9 52.8
2840 53.7 56.4 21.0 53.5
2841 -8.3 -11.0 -8.0 -9.6
2842 -5.1 -12.3 -10.8 -10.7
2843 34.7 30.4 46.4 55.6
2844 -6.6 -5.7 -8.4 -9.8
2845 41.1 41.3 33.5 51.4
2846 -11.9 -4.2 -11.3 -6.2
2847 48.6 25.6 51.6 55.1
2848 -7.0 -6.4 -6.7 -10.5
2849 -11.6 -11.6 -9.2 -9.5
2850 23.2 39.0 28.5 22.5
2851 -4.8 -7.7 -11.6 -3.4
2852 -12.5 -6.2 -7.1 -10.8
2853 47.5 22.4 48.1 24.8
2854 21.0 34.8 55.9 27.8
2855 38.8 55.1 44.6 44.2
2856 52.6 49.7 35.7 20.3
2857 52.3 58.8 29.5 51.7
2858 50.1 50.7 50.8 34.9
2859 37.4 30.3 31.1 29.8
2860 41.0 51.6 48.8 37.6
2861 -12.5 -9.1 -9.1 -10.3
2862 -11.0 -8.1 -11.2 -11.0
2863 25.7 25.1 44.0 36.8
2864 22.4 55.5 45.8 20.4
2865 -5.5 -9.9 -12.4 -8.9
2866 0.0 0.0 0.0 0.0
2867 27.5 44.2 52.0 58.5
2868 24.1 53.0 52.5 33.0
2869 32.6 30.5 23.7 38.0
2870 59.0 45.9 58.9 54.9
2871 -3.7 -12.0 -12.5 -5.8
2872 -12.0 -12.0 -9.5 -11.6
2873 23.5 57.7 26.8 22.1
2874 -7.5 -10.5 -6.3 -6.9
2875 55.6 53.7 46.8 48.4
2876 -11.4 -7.7 -7.3 -7.6
2877 39.9 42.9 53.1 44.6
2878 -8.7 -6.7 -10.3 -8.4
2879 -10.6 -9.9 -12.0 -9.7
2880 -7.3 -8.0 -7.6 -11.4
2881 -10.3 -7.2 -7.9 -12.5
2882 -12.7 -9.7 -11.8 -12.5
2883 -11.6 -5.6 -8.6 -3.5
2884 40.8 59.5 55.4 53.7
2885 51.1 37.2 34.8 51.1
2886 -9.4 -3.7 -12.7 -7.1
2887 -11.7 -11.7 -4.4 -12.4
2888 49.3 33.8 29.0 45.9
2889 45.0 34.2 31.2 36.0
2890 -6.1 -3.5 -6.0 -7.9
2891 50.7 42.3 23.7 48.3
2892 50.4 27.3 56.8 35.5
2893 37.9 54.6 53.8 27.4
2894 -11.7 -10.6 -10.1 -8.9
2895 -9.2 -5.8 -6.6 -11.3
2896 -12.7 -8.7 -11.1 -8.6
2897 -8.0 -10.0 -5.2 -11.5
2898 -7.8 -10.6 -12.3 -11.1
2899 22.7 34.1 43.8 39.3
2900 -10.4 -4.9 -6.4 -10.6
2901 -4.0 -4.0 -10.2 -5.3
2902 32.0 53.3 41.8 26.1
2903 58.3 22.9 50.8 54.9
2904 57.1 58.7 49.3 23.2
2905 -8.1 -8.1 -12.4 -4.0
2906 -12.4 -9.4 -6.3 -10.4
2907 -12.4 -7.8 -6.6 -8.0
2908 -12.7 -12.6 -4.2 -9.4
2909 -10.7 -5.3 -3.8 -9.5
2910 -5.8 -7.2 -9.6 -10.3
2911 -11.7 -11.5 -4.5 -6.8
2912 51.9 28.1 34.5 24.6
2913 -8.4 -4.4 -11.8 -5.9
2914 -11.7 -11.0 -9.9 -3.4
2915 -8.2 -11.6 -5.3 -7.7
2916 -9.2 -10.9 -9.0 -3.7
2917 48.1 39.3 46.6 23.8
2918 -6.1 -7.0 -8.9 -7.4
2919 -9.5 -5.2 -11.9 -3.6
2920 23.5 42.8 51.9 47.9
2921 32.7 25.8 45.8 22.5
2922 42.3 28.0 22.4 34.4
2923 -7.6 -10.5 -12.4 -10.5
2924 25.7 43.4 47.1 30.1
2925 57.8 50.5 56.7 25.3
2926 -11.3 -6.5 -8.8 -7.7
2927 -9.4 -9.0 -11.4 -11.9
2928 -6.1 -3.7 -5.9 -12.1
2929 27.6 51.2 46.6 22.3
2930 -12.7 -6.4 -12.0 -7.6
2931 -12.2 -5.7 -10.3 -6.3
2932 -8.0 -4.3 -8.2 -4.0
2933 -3.6 -10.7 -5.8 -12.1
2934 22.2 33.1 42.8 23.8
2935 -9.1 -8.8 -5.2 -6.1
2936 28.5 34.8 23.3 21.6
2937 -9.6 -11.8 -9.6 -4.4
2938 50.7 45.3 24.9 21.9
2939 21.8 56.3 21.5 48.1
2940 -6.1 -6.7 -12.5 -8.5
2941 -6.4 -7.2 -3.4 -7.3
2942 53.4 35.9 48.1 33.3
2943 -7.1 -10.7 -9.6 -4.2
2944 31.9 55.3 21.6 24.0
2945 48.5 24.3 39.2 31.9
2946 -8.0 -5.9 -11.0 -5.6
2947 -11.3 -3.4 -6.1 -3.7
2948 -9.8 -10.6 -11.1 -6.5
2949 -6.1 -6.1 -9.5 -3.3
2950 -6.4 -5.5 -11.7 -11.5
2951 -9.8 -4.4 -11.8 -4.1
2952 -5.6 -12.4 -11.4 -11.4
2953 -10.4 -12.3 -4.4 -4.8
2954 42.6 31.3 50.7 26.2
2955 -3.6 -11.5 -9.4 -10.7
2956 46.5 56.4 27.9 32.2
2957 32.7 34.9 28.7 27.3
2958 -12.9 -11.9 -9.8 -7.1
2959 -8.7 -5.1 -6.3 -11.9
2960 35.3 23.9 49.9 38.1
2961 40.2 51.8 42.0 21.4
2962 -9.1 -3.4 -8.9 -8.6
2963 -4.3 -10.8 -7.3 -8.0
2964 22.9 48.4 23.7 42.6
2965 -4.6 -12.7 -9.4 -3.7
2966 40.8 53.2 52.4 35.8
2967 35.8 20.0 41.7 23.6
2968 34.4 52.1 29.4 54.8
2969 44.4 23.3 22.9 22.9
2970 -4.2 -7.4 -10.9 -11.5
2971 -9.5 -8.3 -4.9 -10.2
2972 -4.2 -12.6 -3.5 -3.2
2973 -7.3 -10.1 -5.2 -8.1
2974 57.3 44.5 22.2 26.0
2975 -3.8 -4.3 -9.5 -12.3
2976 30.4 50.5 42.6 54.4
2977 32.2 37.2 23.1 39.4
2978 -6.0 -12.3 -9.7 -8.4
2979 -7.6 -5.7 -7.4 -8.4
2980 -5.4 -10.0 -6.9 -5.7
2981 -10.1 -5.2 -4.3 -10.2
2982 56.4 54.8 26.8 52.5
2983 -11.0 -3.6 -9.1 -12.4
2984 -5.1 -9.4 -4.6 -7.7
2985 -10.9 -3.3 -10.6 -4.7
2986 34.4 27.3 22.5 36.1
2987 23.1 31.7 23.8 34.2
2988 -4.3 -9.7 -12.8 -9.9
2989 -9.8 -7.9 -7.6 -9.4
2990 -5.8 -5.9 -11.1 -6.1
2991 -6.0 -9.6 -8.1 -8.7
2992 -9.9 -5.4 -3.5 -9.3
2993 39.5 43.7 51.9 26.5
2994 35.5 55.8 52.3 50.6
2995 50.3 28.1 34.4 45.0
2996 39.9 31.5 32.1 33.1
2997 27.9 32.7 28.3 58.6
2998 -8.3 -5.2 -11.6 -5.0
2999 -11.0 -5.8 -6.8 -4.4
3000 21.7 52.2 47.5 34.0
3001 -7.0 -4.3 -5.3 -9.9
3002 47.9 38.8 37.2 59.5
3003 -8.0 -5.9 -3.9 -4.4
3004 -4.5 -12.0 -3.6 -10.5
3005 -12.2 -8.6 -4.0 -4.4
3006 -4.2 -6.2 -9.3 -9.8
3007 51.4 44.8 22.3 20.3
3008 47.1 38.4 44.3 35.9
3009 -10.1 -12.8 -10.5 -10.9
3010 27.5 47.6 37.0 54.3
3011 45.0 21.6 22.2 41.7
3012 59.0 45.3 23.3 56.1
3013 -7.3 -4.0 -4.0 -9.7
3014 52.3 48.4 27.2 43.1
3015 -8.0 -5.3 -6.6 -9.1
3016 -3.6 -10.3 -10.0 -9.1
3017 27.6 59.5 49.3 31.7
3018 36.7 39.9 26.6 55.2
3019 32.1 21.8 20.7 37.4
3020 -5.1 -6.8 -3.3 -9.2
3021 -7.4 -9.8 -5.1 -6.8
3022 58.9 24.5 34.8 40.9
3023 58.2 38.5 39.3 56.2
3024 -8.7 -5.3 -8.9 -4.7
3025 -12.6 -7.6 -3.8 -6.0
3026 -12.4 -3.6 -7.2 -7.6
3027 -3.6 -4.4 -9.1 -9.1
3028 -12.8 -9.8 -10.3 -3.5
3029 -9.7 -9.6 -6.6 -5.3
3030 53.3 53.4 28.7 56.6
3031 -3.9 -5.1 -12.3 -7.0
3032 20.1 42.7 42.0 49.5
3033 44.0 52.1 41.3 32.3
3034 -3.4 -11.0 -10.6 -6.8
3035 -3.5 -7.0 -6.4 -9.5
3036 52.0 55.3 46.0 22.7
3037 -5.1 -10.5 -4.6 -4.5
3038 -10.9 -10.9 -6.7 -6.3
3039 48.5 47.6 51.4 42.4
3040 -8.1 -12.7 -10.6 -8.1
3041 47.2 24.4 22.3 53.4
3042 -3.5 -11.8 -8.0 -7.8
3043 38.2 48.8 21.8 20.5
3044 -6.9 -9.7 -7.1 -8.0
3045 -10.2 -8.1 -3.5 -4.2
3046 38.2 39.9 34.2 24.1
3047 -5.6 -3.3 -11.6 -6.8
3048 21.8 26.2 58.2 38.5
3049 26.5 30.8 35.0 27.9
3050 -10.1 -7.8 -4.4 -12.4
3051 52.3 42.8 32.4 56.7
3052 -4.2 -12.2 -4.9 -7.0
3053 -9.6 -11.5 -9.7 -9.6
3054 -9.3 -10.1 -6.4 -4.0
3055 46.4 37.1 39.1 43.0
3056 54.0 39.1 42.1 39.8
3057 37.9 23.8 34.1 55.0
3058 49.5 24.3 34.5 28.0
3059 -10.5 -5.9 -8.3 -10.2
3060 -8.5 -6.3 -11.3 -7.6
3061 52.3 41.0 37.8 49.8
3062 -5.6 -9.2 -3.4 -12.3
3063 -7.8 -10.2 -8.9 -5.1
3064 -8.7 -11.3 -4.2 -5.0
3065 -9.8 -10.0 -10.7 -7.2
3066 35.9 56.4 48.9 46.2
3067 49.2 59.3 55.9 23.7
3068 -9.3 -5.6 -5.2 -5.6
3069 -10.2 -12.3 -4.2 -3.5
3070 -6.1 -9.9 -4.7 -5.7
3071 -10.2 -7.5 -9.6 -6.8
3072 41.8 47.9 26.4 43.1
3073 -3.6 -3.8 -8.0 -12.1
3074 -5.0 -10.0 -6.3 -4.7
3075 -12.4 -7.0 -9.0 -9.7
3076 58.1 33.0 38.5 23.2
3077 -6.5 -10.4 -10.0 -5.5
3078 -12.9 -5.3 -4.9 -3.8
3079 40.8 41.1 48.9 31.3
3080 -9.9 -4.9 -9.2 -8.1
3081 -6.2 -7.3 -9.5 -5.6
3082 -10.9 -12.0 -5.9 -6.1
3083 -4.1 -10.7 -6.5 -3.5
3084 -4.4 -8.1 -7.6 -5.7
3085 45.6 40.6 22.1 55.7
3086 -5.1 -12.0 -9.4 -6.0
3087 -11.0 -10.8 -5.2 -4.3
3088 -3.8 -11.4 -9.0 -9.0
3089 -11.8 -12.1 -3.8 -9.9
3090 -10.2 -9.9 -5.2 -10.6
3091 0.0 0.0 0.0 0.0
3092 -11.8 -12.8 -12.5 -10.0
3093 -4.6 -6.3 -11.0 -7.8
3094 24.4 49.4 32.8 40.1
3095 52.6 58.1 49.3 59.0
3096 47.9 41.5 29.5 27.3
3097 -7.3 -5.2 -3.5 -6.5
3098 44.6 54.8 59.0 33.0
3099 53.7 20.5 32.9 27.4
3100 -12.1 -4.6 -9.8 -12.0
3101 -10.3 -8.9 -11.6 -3.9
3102 -3.8 -5.7 -4.5 -10.1
3103 -11.1 -7.1 -8.1 -10.7
3104 59.2 27.8 25.1 21.1
3105 20.4 37.0 46.6 32.4
3106 -4.4 -5.2 -8.8 -9.0
3107 -10.3 -7.4 -9.3 -10.4
3108 27.7 36.8 57.7 55.9
3109 57.3 42.9 56.3 34.4
3110 -9.2 -5.2 -7.0 -4.5
3111 52.0 34.1 45.1 27.5
3112 59.9 31.4 33.3 39.9
3113 -5.8 -10.3 -8.8 -5.9
3114 -12.8 -7.9 -8.7 -11.3
3115 -10.2 -11.0 -5.4 -11.9
3116 35.0 29.2 58.6 29.6
3117 52.3 49.2 24.8 37.0
3118 -7.1 -12.4 -10.4 -6.7
3119 -10.7 -5.9 -8.1 -8.8
3120 -10.5 -11.7 -9.4 -11.9
3121 47.4 47.7 24.3 28.0
3122 49.3 56.1 53.2 47.4
3123 -10.3 -4.3 -10.4 -4.5
3124 -8.8 -8.4 -8.6 -8.3
3125 -6.4 -12.8 -3.3 -10.8
3126 56.8 54.5 45.9 50.0
3127 -4.7 -9.7 -6.2 -9.1
3128 21.3 26.3 29.7 56.8
3129 51.6 53.1 35.7 58.1
3130 -8.2 -6.8 -8.9 -8.5
3131 57.5 29.8 52.8 50.3
3132 37.3 47.7 48.7 40.1
3133 57.5 36.7 25.7 48.5
3134 -8.4 -7.0 -10.5 -10.1
3135 -6.9 -9.4 -6.8 -3.6
3136 -5.5 -6.7 -11.7 -4.8
3137 -4.5 -11.5 -7.7 -5.3
3138 -9.8 -6.8 -3.7 -4.0
3139 27.6 56.2 46.4 26.4
3140 -4.5 -4.9 -9.5 -12.7
3141 28.5 32.9 37.0 23.4
3142 26.2 56.1 44.6 20.2
3143 -12.8 -3.5 -4.6 -3.2
3144 -9.7 -5.2 -11.8 -8.4
3145 -8.1 -6.3 -7.3 -3.5
3146 -7.1 -8.4 -3.2 -6.5
3147 38.0 58.0 26.5 29.9
3148 25.7 29.7 55.7 36.7
3149 59.8 31.5 28.1 24.2
3150 -3.7 -12.8 -10.9 -5.9
3151 -6.5 -4.4 -6.0 -5.3
3152 -9.2 -8.7 -8.3 -7.1
3153 -5.4 -7.7 -4.3 -5.1
3154 -7.1 -3.7 -4.8 -10.9
3155 -7.8 -12.8 -6.9 -11.2
3156 43.1 20.3 24.8 38.1
3157 -10.3 -11.0 -3.9 -7.7
3158 -11.1 -10.2 -12.3 -8.1
3159 25.2 36.7 51.5 35.8
3160 47.2 30.6 24.9 25.0
3161 -11.4 -10.8 -4.7 -11.5
3162 31.7 52.9 23.9 26.1
3163 -12.4 -10.7 -9.6 -9.4
3164 -10.1 -11.0 -12.6 -5.2
3165 0.0 0.0 0.0 0.0
3166 22.4 56.7 42.8 23.2
3167 59.3 52.6 29.2 54.0
3168 -12.5 -12.6 -9.7 -11.8
3169 -8.9 -4.2 -12.5 -5.5
3170 39.7 22.5 20.4 53.9
3171 51.6 35.0 34.7 21.1
3172 -3.5 -7.6 -11.1 -11.3
3173 -9.8 -12.2 -11.6 -6.1
3174 57.2 56.2 29.6 28.5
3175 -6.5 -7.5 -11.7 -11.6
3176 31.9 44.7 58.8 59.5
3177 -10.7 -9.9 -4.9 -6.9
3178 -6.4 -6.7 -11.4 -3.7
3179 -6.2 -7.7 -5.4 -3.8
3180 35.9 31.8 44.8 29.6
3181 -8.9 -8.2 -12.4 -7.2
3182 25.3 24.0 34.5 33.9
3183 51.1 24.2 31.5 44.3
3184 42.7 57.1 20.5 44.3
3185 -9.7 -7.7 -10.0 -9.7
3186 28.7 52.8 29.0 30.1
3187 -8.3 -5.4 -10.3 -3.9
3188 -9.5 -6.1 -11.5 -8.0
3189 47.3 57.4 38.0 40.3
3190 -6.1 -6.2 -10.0 -9.4
3191 -5.1 -12.0 -3.7 -12.3
3192 20.7 56.4 32.2 46.4
3193 35.1 22.3 40.0 37.3
3194 40.7 56.6 32.3 42.9
3195 42.4 23.9 27.1 52.7
3196 59.9 51.5 48.9 56.1
3197 -5.1 -7.1 -4.1 -8.4
3198 -10.1 -8.5 -7.4 -7.0
3199 -11.1 -5.1 -7.5 -12.1
3200 -7.8 -7.2 -7.9 -11.3
3201 -3.3 -5.5 -3.2 -9.5
3202 -10.0 -11.3 -12.4 -9.0
3203 -10.3 -8.3 -6.8 -7.7
3204 46.3 55.0 27.1 33.7
3205 -11.2 -12.4 -12.2 -4.6
3206 -9.3 -11.4 -10.8 -7.2
3207 25.7 25.5 24.1 58.0
3208 -9.8 -11.4 -9.4 -11.7
3209 -8.8 -9.6 -12.7 -9.5
3210 -9.1 -11.3 -4.3 -5.4
3211 28.8 31.1 47.2 32.5
3212 -3.6 -12.3 -12.5 -3.2
3213 49.1 46.9 26.7 38.5
3214 -4.7 -4.0 -11.4 -8.9
3215 56.8 36.0 35.0 34.3
3216 -10.1 -6.7 -11.0 -7.6
3217 -7.7 -6.1 -8.6 -10.8
3218 -7.5 -4.7 -9.9 -5.4
3219 -8.2 -6.6 -8.1 -11.7
3220 -7.0 -12.7 -10.9 -8.3
3221 -6.4 -7.4 -11.0 -8.6
3222 0.0 0.0 0.0 0.0
3223 -11.5 -9.2 -3.6 -7.8
3224 31.4 49.6 50.9 44.1
3225 -8.4 -4.5 -7.5 -6.2
3226 31.2 38.6 21.3 42.6
3227 46.7 56.9 30.9 40.9
3228 -3.8 -9.5 -11.5 -9.9
3229 -12.9 -10.2 -5.9 -10.4
3230 -3.6 -12.5 -10.4 -10.4
3231 -8.7 -7.1 -4.9 -5.1
3232 36.4 52.1 28.6 57.5
3233 -8.1 -3.9 -9.5 -5.5
3234 -6.0 -6.1 -3.5 -4.0
3235 42.9 26.6 20.4 21.2
3236 57.0 23.1 30.1 32.3
3237 -5.6 -8.3 -10.0 -9.6
3238 35.9 21.7 31.3 48.6
3239 -11.6 -10.9 -10.9 -6.2
3240 44.3 47.3 55.3 49.0
3241 -11.5 -5.3 -8.1 -8.9
3242 55.9 45.4 48.3 20.9
3243 -3.3 -5.7 -3.5 -11.0
3244 34.5 51.5 48.3 22.3
3245 45.5 54.7 31.4 32.6
3246 32.5 35.1 51.0 43.0
3247 56.5 24.8 53.3 34.1
3248 -12.5 -12.2 -8.5 -8.9
3249 35.5 21.8 33.0 24.5
3250 37.3 46.6 32.8 58.6
3251 -12.4 -5.3 -12.3 -5.2
3252 56.7 32.7 37.6 26.9
3253 -4.3 -7.0 -3.7 -8.2
3254 -9.3 -4.6 -5.2 -5.6
3255 50.9 53.0 41.2 38.5
3256 -12.8 -5.1 -9.9 -9.1
3257 -10.4 -7.7 -4.0 -12.4
3258 54.3 32.0 58.3 25.8
3259 23.8 59.9 53.4 60.0
3260 28.9 45.3 24.1 21.3
3261 40.2 32.4 26.2 32.6
3262 -5.2 -11.4 -11.0 -4.9
3263 -11.6 -11.4 -9.2 -11.8
3264 -4.2 -8.4 -9.5 -12.6
3265 -11.1 -6.8 -9.1 -4.4
3266 54.1 38.4 42.0 29.1
3267 48.0 36.1 24.6 37.9
3268 21.9 42.1 39.8 42.9
3269 44.8 51.3 46.2 20.7
3270 -4.0 -6.9 -7.5 -8.4
3271 -6.1 -6.5 -10.5 -4.6
3272 59.1 54.9 38.7 53.0
3273 27.9 50.2 45.9 31.1
3274 51.3 43.5 52.6 47.7
3275 -11.9 -4.7 -6.8 -10.5
3276 -12.6 -11.6 -6.8 -11.0
3277 -6.7 -5.3 -12.6 -9.7
3278 -5.6 -3.9 -8.2 -9.6
3279 52.7 52.0 36.7 40.8
3280 -6.8 -7.5 -11.4 -6.8
3281 47.2 27.5 30.0 51.6
3282 -3.7 -9.7 -10.2 -5.6
3283 -5.2 -12.3 -7.0 -7.9
3284 57.5 45.4 23.8 41.5
3285 -7.6 -10.0 -9.9 -10.0
3286 -11.5 -9.1 -9.7 -8.4
3287 34.9 38.1 41.9 49.1
3288 -5.4 -9.4 -11.9 -7.3
3289 -3.3 -12.5 -7.1 -7.6
3290 -8.3 -4.1 -5.8 -11.8
3291 20.5 38.9 49.8 45.1
3292 -3.6 -10.9 -10.9 -7.8
3293 27.0 36.1 28.6 52.0
3294 38.2 39.7 53.9 36.7
3295 27.8 53.5 51.5 20.1
3296 45.8 37.3 37.6 32.2
3297 -7.9 -10.9 -7.8 -7.7
3298 25.4 45.3 36.2 51.5
3299 -5.3 -7.5 -8.9 -8.0
3300 0.0 0.0 0.0 0.0
3301 -11.5 -8.7 -5.5 -12.7
3302 -9.9 -7.7 -3.6 -8.2
3303 -7.8 -11.5 -4.0 -5.6
3304 -4.6 -3.3 -8.5 -10.5
3305 58.3 42.1 46.4 22.9
3306 -3.6 -10.9 -10.3 -5.0
3307 -3.7 -9.4 -9.2 -5.4
3308 49.6 36.5 58.6 40.0
3309 42.1 43.9 57.7 48.8
3310 28.3 36.8 57.4 42.1
3311 -9.6 -5.5 -8.1 -3.5
3312 40.2 26.1 30.6 33.0
3313 59.9 35.2 51.4 53.3
3314 -11.8 -4.5 -5.7 -9.5
3315 32.4 47.2 33.5 50.2
3316 38.9 35.9 32.6 30.0
3317 23.8 38.2 22.0 58.8
3318 23.5 38.6 46.4 44.3
3319 45.0 30.9 36.0 56.4
3320 22.6 36.0 55.4 41.8
3321 52.4 53.9 26.0 55.2
3322 -9.1 -3.6 -3.9 -12.4
3323 58.1 39.7 50.7 44.9
3324 44.8 41.7 37.9 39.2
3325 -4.1 -7.4 -12.7 -5.9
3326 -8.9 -11.9 -11.2 -6.8
3327 -5.4 -11.0 -6.3 -6.3
3328 -6.3 -10.8 -8.5 -7.7
3329 30.8 58.7 31.4 39.9
3330 -8.7 -4.7 -6.5 -9.8
3331 23.4 46.4 54.6 26.8
3332 -3.5 -11.6 -10.1 -3.6
3333 -11.8 -7.4 -11.6 -9.7
3334 -12.2 -5.0 -10.3 -4.0
3335 -5.6 -7.6 -6.7 -11.2
3336 34.4 23.5 26.2 57.6
3337 -10.4 -11.4 -9.0 -5.1
3338 40.6 40.8 35.0 21.5
3339 48.7 50.4 23.4 30.6
3340 48.6 43.1 32.8 46.2
3341 46.6 51.4 20.9 29.1
3342 35.2 24.2 20.3 41.1
3343 -6.3 -8.7 -3.6 -6.9
3344 -7.7 -11.8 -6.5 -7.3
3345 -5.2 -8.5 -8.0 -6.6
3346 45.2 53.9 50.2 59.0
3347 -7.5 -6.5 -11.9 -4.3
3348 26.8 58.7 33.3 35.4
3349 29.4 52.2 25.3 28.2
3350 -11.3 -3.3 -6.0 -7.3
3351 35.6 48.7 39.2 30.6
3352 49.6 36.3 42.5 24.6
3353 43.6 29.7 28.5 25.0
3354 29.3 23.8 51.4 39.2
3355 46.3 30.3 44.7 32.7
3356 -8.3 -9.4 -9.6 -6.8
3357 -3.7 -11.8 -8.0 -10.9
3358 51.8 23.4 37.3 25.1
3359 -6.2 -11.9 -4.2 -9.2
3360 53.8 32.6 21.7 59.2
3361 -11.9 -9.2 -7.4 -5.7
3362 -3.7 -8.4 -5.0 -8.8
3363 -9.2 -5.6 -3.6 -7.1
3364 -5.4 -12.7 -4.3 -9.7
3365 -12.1 -11.4 -10.3 -7.7
3366 -4.9 -7.0 -5.0 -8.4
3367 -8.4 -9.8 -9.3 -5.2
3368 -10.5 -10.5 -3.7 -7.5
3369 -11.8 -7.7 -9.2 -12.6
3370 -3.9 -12.5 -9.5 -3.3
3371 -3.9 -3.9 -3.4 -4.4
3372 29.2 50.2 33.7 59.0
3373 28.1 24.2 51.7 44.1
3374 -7.7 -7.3 -3.2 -12.1
3375 -3.7 -5.6 -4.1 -12.5
3376 24.0 53.9 49.1 28.1
3377 58.6 28.2 51.4 46.0
3378 45.0 23.7 34.2 27.5
3379 54.9 37.5 51.0 39.7
3380 -6.9 -6.7 -6.9 -7.8
3381 -11.9 -9.0 -10.3 -3.9
3382 -5.9 -4.1 -12.8 -7.7
3383 -9.0 -11.5 -9.8 -8.5
3384 33.7 30.8 58.8 20.2
3385 -6.3 -12.5 -5.4 -5.5
3386 26.1 53.3 50.8 35.2
3387 -6.3 -9.0 -7.2 -5.2
3388 -8.6 -4.1 -10.0 -11.0
3389 -7.7 -9.5 -8.4 -12.5
3390 -9.7 -6.0 -7.4 -9.8
3391 -11.3 -9.9 -7.5 -7.5
3392 -4.7 -3.5 -5.8 -4.2
3393 36.3 29.7 53.3 24.3
3394 -9.9 -11.1 -9.6 -10.9
3395 -5.4 -5.5 -4.8 -4.4
3396 30.3 21.4 38.1 25.4
3397 -7.8 -11.5 -5.9 -6.0
3398 -5.6 -3.9 -5.3 -11.7
3399 22.6 23.4 50.3 51.4
3400 47.8 29.9 20.7 25.2
3401 -8.3 -8.0 -5.1 -3.8
3402 -8.9 -5.2 -10.8 -9.3
3403 -6.5 -4.8 -11.2 -3.9
3404 -11.9 -9.8 -4.8 -4.2
3405 -11.1 -12.8 -9.5 -5.5
3406 -11.8 -10.9 -5.4 -4.8
3407 44.7 30.6 50.1 50.5
3408 -4.8 -12.4 -11.4 -7.2
3409 -11.7 -5.3 -9.7 -9.0
3410 -8.9 -4.2 -5.5 -4.9
3411 -8.5 -4.9 -7.5 -9.0
3412 -7.5 -5.2 -4.4 -9.9
3413 -4.2 -3.7 -7.8 -9.1
3414 48.6 52.6 20.7 47.5
3415 -7.0 -4.4 -11.8 -9.0
3416 -4.9 -10.8 -4.5 -6.1
3417 -4.3 -3.3 -6.8 -6.0
3418 0.0 0.0 0.0 0.0
3419 26.3 55.2 35.7 38.7
3420 35.9 52.7 57.3 20.4
3421 -12.6 -10.9 -7.2 -11.7
3422 -11.7 -5.2 -8.0 -10.0
3423 -11.9 -9.2 -9.6 -7.1
3424 -6.5 -8.6 -3.7 -10.8
3425 43.7 54.0 56.3 57.0
3426 -12.4 -5.9 -9.3 -7.4
3427 28.8 46.6 23.6 21.4
3428 41.2 52.3 31.2 56.5
3429 -10.1 -10.2 -3.2 -12.0
3430 -6.7 -9.0 -10.6 -9.3
3431 -8.3 -10.6 -11.3 -11.7
3432 -11.8 -5.9 -5.6 -9.4
3433 24.7 56.3 48.7 48.9
3434 35.9 46.5 58.8 36.1
3435 -9.0 -4.5 -12.1 -12.5
3436 55.5 48.8 44.5 32.9
3437 48.9 30.3 57.0 39.0
3438 -4.7 -7.2 -12.2 -3.4
3439 -3.8 -11.3 -5.2 -5.3
3440 -8.1 -11.1 -8.4 -4.1
3441 -6.3 -9.8 -11.4 -9.9
3442 -9.9 -4.6 -3.8 -6.6
3443 -5.9 -6.7 -10.7 -4.0
3444 23.8 44.3 28.8 20.1
3445 -3.9 -9.5 -7.9 -6.9
3446 -8.1 -4.7 -9.0 -8.0
3447 35.6 37.3 29.8 59.8
3448 -9.1 -7.6 -9.2 -5.0
3449 -10.2 -7.5 -3.3 -11.9
3450 -5.2 -10.6 -7.9 -12.2
3451 28.9 28.5 33.2 59.8
3452 35.7 24.8 37.4 47.0
3453 42.8 40.8 35.6 36.3
3454 41.5 34.6 33.4 38.2
3455 -7.7 -8.0 -5.1 -8.4
3456 22.7 21.4 22.1 33.0
3457 -3.6 -11.9 -4.4 -6.5
3458 59.3 56.2 30.8 23.4
3459 -5.1 -3.9 -11.4 -5.7
3460 29.3 33.6 25.8 58.3
3461 -6.5 -12.0 -5.8 -10.0
3462 48.7 20.8 24.5 26.8
3463 21.6 46.4 50.3 54.4
3464 53.2 47.8 39.4 50.4
3465 -8.2 -9.4 -6.1 -10.6
3466 -11.5 -11.4 -10.5 -6.7
3467 -9.3 -6.5 -11.3 -6.7
3468 -4.6 -9.6 -7.9 -5.9
3469 -10.6 -10.8 -7.1 -4.6
3470 -6.8 -9.1 -11.2 -4.6
3471 -8.6 -7.4 -6.0 -4.4
3472 -4.3 -9.7 -10.9 -4.6
3473 -12.3 -10.2 -6.9 -6.4
3474 -11.9 -6.6 -6.2 -10.7
3475 28.2 27.7 36.8 58.8
3476 57.5 29.4 23.7 31.0
3477 -11.5 -6.9 -9.8 -5.5
3478 -9.4 -8.2 -6.9 -10.7
3479 -9.1 -9.3 -5.3 -10.6
3480 -8.4 -11.6 -7.5 -11.1
3481 -7.0 -12.5 -10.3 -10.1
3482 34.6 37.2 21.0 59.6
3483 50.7 56.5 59.4 30.3
3484 40.8 22.3 57.7 37.1
3485 55.0 42.2 42.4 54.2
3486 -3.7 -6.0 -7.3 -5.7
3487 45.2 59.3 34.5 25.5
3488 -8.1 -10.4 -4.6 -8.3
3489 -3.9 -11.9 -7.8 -6.4
3490 50.8 26.8 52.1 50.6
3491 24.8 52.4 47.4 47.2
3492 24.4 27.7 31.2 51.6
3493 -8.3 -4.7 -3.3 -11.7
3494 -9.0 -9.1 -12.1 -8.9
3495 -5.9 -7.8 -4.1 -10.5
3496 43.2 22.7 53.5 55.7
3497 56.4 39.1 24.8 49.2
3498 52.0 21.1 49.5 40.7
3499 -11.7 -10.3 -4.0 -5.8
3500 35.6 44.1 59.7 28.1
3501 -12.0 -7.7 -6.3 -8.1
3502 25.5 35.4 24.6 52.9
3503 51.4 22.7 35.6 44.6
3504 35.4 36.4 41.8 43.1
3505 38.5 42.3 36.6 44.5
3506 54.8 53.6 58.0 54.7
3507 -8.2 -12.6 -4.8 -4.9
3508 -3.2 -12.5 -8.1 -10.3
3509 -6.5 -12.4 -6.5 -10.2
3510 -5.6 -6.8 -9.6 -12.0
3511 -10.3 -11.4 -9.9 -6.1
3512 -10.8 -8.2 -7.8 -3.6
3513 -4.0 -10.2 -6.1 -9.0
3514 -9.2 -5.4 -10.4 -9.9
3515 -10.0 -6.2 -6.7 -4.3
3516 -6.6 -12.6 -5.9 -10.1
3517 -12.6 -4.1 -10.1 -9.8
3518 -8.5 -9.4 -6.4 -4.6
3519 26.8 52.4 59.6 25.7
3520 -6.3 -8.9 -12.8 -9.3
3521 50.5 22.1 32.6 20.1
3522 -12.3 -8.8 -12.3 -5.1
3523 -3.3 -11.5 -10.8 -7.4
3524 -4.0 -3.6 -11.4 -12.0
3525 44.6 21.8 23.1 20.9
3526 -8.6 -10.3 -11.3 -10.7
3527 22.6 38.0 34.0 22.9
3528 35.6 24.3 24.5 38.9
3529 41.7 25.7 22.7 41.8
3530 43.9 28.6 33.1 53.1
3531 42.0 46.7 42.9 24.5
3532 49.0 23.3 32.5 21.0
3533 22.8 20.5 40.1 38.8
3534 27.2 22.8 58.4 46.6
3535 -11.8 -11.2 -7.5 -5.2
3536 32.8 43.9 25.9 42.5
3537 -11.9 -12.2 -9.7 -12.1
3538 -3.9 -9.9 -10.7 -11.3
3539 -6.4 -11.8 -8.7 -5.9
3540 -9.5 -4.4 -7.7 -10.6
3541 -4.1 -6.7 -11.9 -12.5
3542 -12.1 -11.7 -5.7 -4.0
3543 -4.5 -7.6 -12.3 -12.7
3544 -10.2 -12.1 -6.4 -4.9
3545 -12.0 -8.1 -5.9 -3.6
3546 23.5 48.8 38.1 56.9
3547 38.9 58.5 46.2 51.7
3548 54.5 55.1 52.9 51.0
3549 -9.5 -6.8 -5.6 -9.4
3550 41.0 39.0 49.5 27.1
3551 44.5 29.7 31.6 58.8
3552 -3.6 -8.3 -10.2 -10.6
3553 55.5 30.8 36.9 29.6
3554 34.4 37.3 24.7 38.8
3555 -6.7 -10.9 -6.9 -4.9
3556 38.9 23.2 27.4 44.6
3557 -3.9 -10.4 -10.6 -9.0
3558 -8.0 -8.5 -11.0 -5.1
3559 23.7 53.5 36.2 31.2
3560 57.8 38.4 20.4 40.1
3561 -10.8 -3.9 -3.4 -4.3
3562 -11.6 -5.0 -3.5 -11.7
3563 -10.3 -8.5 -12.5 -11.3
3564 54.3 39.8 22.7 39.5
3565 57.8 47.9 24.2 35.3
3566 -6.3 -10.5 -8.6 -4.8
3567 21.7 20.7 37.5 44.3
3568 24.1 21.9 41.2 53.1
3569 -3.8 -12.3 -8.2 -12.1
3570 -9.9 -5.5 -11.5 -8.9
3571 27.5 55.0 49.8 42.4
3572 53.6 53.4 29.9 23.5
3573 -9.6 -6.6 -6.7 -8.5
3574 -9.1 -8.3 -7.9 -9.3
3575 -4.8 -8.1 -5.7 -10.5
3576 31.4 44.0 32.1 47.8
3577 25.3 34.9 55.3 48.4
3578 -11.1 -12.2 -11.4 -9.7
3579 34.1 29.5 51.7 36.6
3580 0.0 0.0 0.0 0.0
3581 -9.7 -8.5 -4.1 -4.7
3582 -12.8 -12.1 -4.4 -8.6
3583 -10.2 -8.2 -5.7 -10.3
3584 53.1 26.4 21.2 54.9
3585 51.1 56.1 39.5 23.2
3586 -12.7 -10.2 -5.7 -7.6
3587 -5.5 -8.9 -8.5 -5.3
3588 -3.3 -8.2 -3.5 -3.3
3589 -5.8 -11.4 -9.5 -6.6
3590 57.8 23.0 29.7 38.6
3591 29.0 57.0 46.5 30.4
3592 -3.3 -9.8 -4.0 -5.1
3593 -12.7 -6.7 -9.0 -12.2
3594 -8.1 -12.6 -9.4 -7.1
3595 -4.9 -8.2 -6.0 -8.3
3596 -12.2 -8.9 -12.3 -4.2
3597 -5.4 -11.7 -11.3 -3.5
3598 41.1 34.5 42.4 28.8
3599 -9.8 -9.9 -11.0 -6.7
3600 -5.5 -4.3 -7.7 -6.1
3601 35.7 29.3 25.9 45.0
3602 50.2 59.2 29.4 55.3
3603 -10.5 -5.7 -10.4 -7.0
3604 52.8 35.6 32.6 21.3
3605 43.2 54.9 21.2 56.0
3606 -12.2 -10.4 -4.1 -11.8
3607 -11.0 -7.9 -12.2 -9.1
3608 -3.9 -12.7 -4.4 -6.9
3609 39.2 57.3 36.2 26.9
3610 -4.1 -8.5 -9.3 -12.2
3611 -12.6 -5.3 -7.6 -12.5
3612 -4.8 -3.3 -4.0 -3.8
3613 -4.6 -10.0 -11.1 -7.3
3614 -4.6 -12.0 -3.9 -4.3
3615 25.8 56.6 26.0 35.0
3616 50.0 53.3 53.4 41.6
3617 25.3 28.9 32.9 41.2
3618 -12.4 -7.9 -10.3 -11.4
3619 -8.2 -12.6 -8.7 -4.3
3620 38.7 29.3 27.5 43.1
3621 45.6 58.4 27.7 20.8
3622 -7.8 -11.7 -12.5 -12.3
3623 32.1 45.2 55.3 41.6
3624 37.8 54.3 41.4 33.2
3625 -10.5 -4.8 -9.4 -10.9
3626 49.2 56.6 57.8 58.2
3627 49.8 22.6 37.5 52.4
3628 -5.9 -7.7 -8.4 -6.8
3629 -6.7 -10.1 -12.2 -12.5
3630 -7.9 -5.5 -7.9 -8.5
3631 -10.6 -10.7 -4.9 -5.1
3632 24.0 56.2 41.8 41.1
3633 -11.3 -3.6 -6.9 -8.4
3634 41.6 42.8 54.2 23.8
3635 29.7 59.3 50.5 39.7
3636 -3.8 -10.3 -5.3 -8.4
3637 38.1 48.3 30.9 32.5
3638 23.8 36.4 39.1 24.3
3639 49.3 22.6 42.2 32.7
3640 0.0 0.0 0.0 0.0
3641 21.8 40.6 50.2 31.0
3642 52.8 30.2 59.4 45.5
3643 -8.9 -6.7 -6.0 -4.0
3644 -8.7 -7.3 -8.3 -9.3
3645 35.6 38.9 35.1 34.5
3646 -10.4 -3.6 -11.4 -4.0
3647 -6.3 -7.6 -6.1 -5.2
3648 -3.3 -10.9 -7.1 -12.7
3649 -6.7 -6.4 -9.9 -7.6
3650 -5.9 -4.7 -7.7 -4.7
3651 -4.1 -5.5 -5.2 -10.8
3652 -7.2 -6.6 -9.3 -10.2
3653 50.1 30.6 39.9 59.4
3654 30.2 51.4 45.0 44.8
3655 -4.0 -8.7 -10.0 -10.3
3656 -3.9 -10.5 -3.2 -8.0
3657 -5.6 -5.4 -7.9 -9.0
3658 -7.6 -10.5 -7.3 -6.8
3659 49.8 36.9 30.1 55.4
3660 38.8 38.2 57.2 20.3
3661 45.7 24.5 26.6 52.0
3662 -9.3 -12.7 -3.3 -7.6
3663 24.7 52.8 32.2 33.0
3664 0.0 0.0 0.0 0.0
3665 53.4 21.6 26.2 40.1
3666 -6.2 -12.3 -12.5 -4.2
3667 -11.9 -9.2 -5.8 -8.6
3668 48.8 39.6 58.9 23.3
3669 -9.3 -6.8 -8.9 -3.4
3670 56.7 24.9 39.0 36.3
3671 -12.9 -11.9 -8.0 -8.2
3672 -4.7 -11.8 -11.3 -12.5
3673 -3.4 -12.8 -8.6 -8.8
3674 -10.1 -9.1 -4.8 -12.7
3675 48.5 56.2 56.2 49.2
3676 57.4 34.7 47.8 45.4
3677 -12.7 -9.7 -11.3 -7.3
3678 -12.8 -3.4 -6.5 -10.7
3679 52.8 54.4 46.2 21.6
3680 26.5 28.4 33.6 54.2
3681 44.5 58.4 25.1 59.0
3682 -9.0 -10.0 -9.8 -6.9
3683 -10.6 -10.2 -7.4 -5.6
3684 -3.6 -9.4 -12.3 -10.9
3685 40.3 27.1 38.0 60.0
3686 33.3 22.7 24.3 23.4
3687 43.8 45.4 43.7 54.2
3688 -9.2 -10.4 -12.6 -8.6
3689 32.1 50.2 26.3 51.6
3690 57.5 24.9 58.4 22.1
3691 -10.5 -9.9 -8.6 -12.2
3692 43.9 50.2 35.7 34.0
3693 45.1 48.3 57.0 23.1
3694 59.2 42.1 50.7 49.2
3695 -11.5 -12.6 -4.9 -9.1
3696 32.3 57.1 59.2 58.5
3697 -4.0 -9.8 -6.8 -3.2
3698 -11.6 -4.1 -5.7 -5.2
3699 -6.2 -11.8 -9.3 -12.4
3700 21.3 31.9 33.4 29.8
3701 35.3 47.1 34.3 57.3
3702 -3.4 -6.9 -8.9 -6.3
3703 -3.8 -4.3 -10.8 -10.2
3704 -3.6 -6.1 -10.6 -5.1
3705 -3.3 -9.8 -3.5 -6.9
3706 22.5 31.8 20.8 34.7
3707 -5.1 -8.7 -5.6 -12.6
3708 -12.7 -11.3 -3.8 -4.5
3709 35.6 22.5 28.7 50.8
3710 34.2 32.3 45.1 49.3
3711 -11.1 -6.3 -10.2 -5.6
3712 27.5 55.4 20.4 33.3
3713 52.6 56.1 59.4 45.8
3714 -8.7 -5.6 -7.2 -12.3
3715 42.3 52.3 24.5 51.8
3716 -4.5 -10.1 -9.2 -6.5
3717 -5.6 -4.9 -6.5 -4.1
3718 -7.6 -9.5 -10.9 -7.6
3719 38.8 47.2 36.7 32.0
3720 44.3 39.0 41.3 42.0
3721 -11.4 -5.2 -5.2 -10.9
3722 -4.3 -10.8 -7.1 -12.2
3723 33.6 57.3 42.6 49.6
3724 42.9 26.9 23.0 33.0
3725 -12.1 -11.3 -5.3 -10.4
3726 46.7 49.1 30.9 45.5
3727 38.5 38.1 48.0 48.5
3728 46.0 55.2 52.7 44.8
3729 30.9 23.4 45.7 33.0
3730 -11.5 -11.3 -7.8 -5.4
3731 -12.6 -11.1 -12.6 -11.5
3732 52.9 34.8 38.6 28.6
3733 57.9 45.5 40.2 41.6
3734 -12.7 -12.2 -4.6 -9.3
3735 -12.0 -4.6 -12.7 -9.7
3736 -8.1 -4.6 -7.5 -10.9
3737 47.7 59.9 58.1 46.0
3738 -6.1 -3.8 -6.8 -10.1
3739 22.3 56.2 33.1 51.1
3740 50.0 54.2 21.1 22.0
3741 -5.0 -7.8 -4.4 -11.1
3742 -8.5 -5.0 -9.8 -11.1
3743 59.1 54.2 42.0 39.3
3744 25.6 35.3 47.2 45.8
3745 -7.4 -8.4 -12.2 -9.2
3746 43.8 47.6 26.1 41.7
3747 -12.6 -8.0 -11.9 -11.6
3748 39.7 38.7 29.0 52.6
3749 -4.2 -7.2 -10.5 -8.8
3750 -6.2 -11.0 -9.4 -11.8
3751 -8.8 -10.8 -5.5 -7.7
3752 -9.8 -4.3 -9.5 -11.8
3753 -5.1 -7.3 -10.2 -5.1
3754 -7.0 -8.2 -3.8 -11.5
3755 -10.2 -7.6 -10.7 -4.4
3756 -8.8 -4.9 -8.9 -5.1
3757 -12.2 -4.4 -10.1 -6.3
3758 32.0 46.0 34.6 32.8
3759 -11.7 -11.0 -8.1 -11.1
3760 50.2 57.2 42.4 21.8
3761 47.5 46.5 53.2 47.4
3762 -10.9 -12.2 -11.4 -11.5
3763 -9.8 -8.4 -7.5 -4.0
3764 -12.2 -10.1 -12.4 -3.7
3765 -7.4 -4.0 -4.4 -9.2
3766 -11.2 -5.5 -12.4 -5.1
3767 -5.9 -11.6 -6.6 -7.8
3768 22.6 41.8 59.4 55.6
3769 -12.6 -6.5 -9.8 -6.4
3770 -6.9 -6.8 -7.0 -4.0
3771 -4.0 -6.6 -7.9 -10.7
3772 33.5 44.0 49.7 41.9
3773 34.4 53.6 56.6 57.8
3774 34.4 56.4 58.8 43.0
3775 -4.2 -8.3 -8.1 -10.4
3776 39.5 49.1 55.3 50.4
3777 -3.4 -4.6 -11.3 -8.3
3778 -12.3 -9.0 -4.1 -5.4
3779 -4.4 -7.8 -4.4 -12.1
3780 51.4 56.5 40.8 51.1
3781 -4.7 -8.4 -7.3 -12.3
3782 28.8 53.6 55.6 26.6
3783 -12.8 -6.8 -5.1 -11.2
3784 27.5 46.3 55.5 59.3
3785 -10.5 -5.7 -7.3 -10.8
3786 -11.9 -5.5 -10.9 -10.7
3787 -7.9 -8.9 -3.3 -5.4
3788 -12.2 -12.1 -9.3 -8.6
3789 54.9 22.6 20.0 39.6
3790 31.2 48.7 37.2 25.0
3791 -6.7 -10.3 -3.3 -7.1
3792 -4.6 -3.7 -7.8 -3.3
3793 42.2 49.2 29.8 42.7
3794 -8.5 -11.1 -5.6 -9.2
3795 32.7 25.0 34.7 32.7
3796 -12.7 -8.7 -12.1 -8.4
3797 -10.6 -7.0 -11.6 -6.5
3798 27.0 47.5 41.6 30.5
3799 52.6 56.9 40.1 25.0
3800 52.7 44.6 43.0 40.3
3801 -5.6 -10.7 -8.5 -7.9
3802 -12.5 -3.3 -9.6 -10.9
3803 56.8 22.7 34.8 33.7
3804 -4.4 -6.5 -11.0 -6.8
3805 28.3 36.5 42.4 59.5
3806 -6.5 -9.2 -10.4 -12.2
3807 53.7 55.9 52.5 55.6
3808 22.1 22.9 47.4 50.4
3809 -11.6 -6.6 -9.9 -12.1
3810 -12.9 -11.6 -9.1 -7.2
3811 -8.1 -10.1 -9.4 -4.0
3812 -10.4 -9.5 -3.3 -6.6
3813 42.6 41.9 55.9 57.9
3814 -8.2 -6.1 -11.5 -8.5
3815 -3.8 -5.9 -8.4 -3.7
3816 -5.7 -6.1 -6.1 -11.9
3817 30.6 59.8 21.0 42.4
3818 -12.2 -6.0 -11.6 -3.6
3819 37.1 31.1 54.6 43.8
3820 24.4 29.6 44.9 49.1
3821 -9.5 -6.8 -3.6 -11.3
3822 37.2 53.5 51.3 27.3
3823 -12.1 -4.0 -8.4 -9.9
3824 -4.9 -3.7 -12.3 -9.7
3825 35.5 34.5 25.4 55.4
3826 53.5 36.8 36.7 24.8
3827 -11.4 -3.3 -3.5 -9.1
3828 39.3 20.3 41.0 22.4
3829 -6.9 -9.0 -5.5 -5.8
3830 48.8 54.0 45.8 24.1
3831 46.9 21.6 37.6 23.9
3832 28.4 58.3 29.2 38.7
3833 59.1 37.4 49.1 36.0
3834 -6.0 -10.1 -9.8 -7.1
3835 51.5 37.2 53.7 49.8
3836 -4.1 -11.5 -8.5 -3.7
3837 35.0 23.2 26.5 36.9
3838 -4.4 -8.7 -10.1 -3.9
3839 -9.0 -5.5 -10.3 -8.2
3840 43.4 29.6 59.4 45.8
3841 39.0 53.7 56.1 47.2
3842 32.4 32.7 26.0 42.3
3843 -4.8 -11.6 -11.4 -4.8
3844 24.4 28.7 24.0 37.6
3845 -12.0 -9.5 -5.1 -11.4
3846 58.3 42.5 54.9 51.5
3847 30.2 51.0 25.1 31.4
3848 22.3 38.7 21.5 42.0
3849 -6.5 -11.8 -5.1 -11.5
3850 -10.2 -12.0 -5.3 -3.4
3851 33.4 52.3 25.9 51.0
3852 34.9 42.3 28.2 40.0
3853 -3.3 -7.2 -3.9 -7.6
3854 58.0 59.1 34.9 55.0
3855 28.3 36.6 48.5 25.2
3856 -4.7 -10.8 -11.4 -3.4
3857 -7.1 -6.4 -3.4 -4.7
3858 27.6 59.4 33.4 50.0
3859 26.0 41.8 31.5 38.3
3860 44.1 32.3 21.7 36.2
3861 25.5 56.7 45.9 23.9
3862 -9.5 -10.6 -12.5 -4.3
3863 35.3 25.2 36.5 22.7
3864 34.2 58.3 25.5 22.0
3865 52.9 51.0 26.4 56.8
3866 -11.1 -10.9 -7.1 -10.2
3867 42.4 21.6 31.6 57.4
3868 0.0 0.0 0.0 0.0
3869 58.0 39.4 48.8 41.0
3870 -3.8 -10.3 -8.4 -11.3
3871 -5.8 -11.5 -11.2 -8.7
3872 -6.6 -12.2 -4.8 -7.9
3873 -8.6 -7.1 -11.6 -10.1
3874 -12.8 -11.9 -9.3 -6.2
3875 -10.3 -3.9 -11.9 -11.6
3876 -9.2 -8.3 -8.4 -7.0
3877 43.1 27.3 25.4 57.4
3878 50.3 56.1 37.1 56.6
3879 49.7 53.1 57.5 27.6
3880 48.6 58.2 41.2 43.0
3881 -8.7 -8.8 -5.4 -4.3
3882 37.6 30.5 50.6 49.4
3883 -12.3 -5.1 -9.6 -6.7
3884 -4.5 -4.8 -6.8 -5.3
3885 54.9 21.5 25.8 25.2
3886 -10.7 -9.7 -11.8 -12.3
3887 33.0 50.0 32.0 33.4
3888 40.0 27.6 28.9 54.5
3889 50.6 40.5 43.3 40.5
3890 -7.7 -5.6 -5.3 -7.3
3891 -5.8 -5.8 -9.0 -8.2
3892 -5.9 -3.8 -11.3 -9.4
3893 -4.5 -6.7 -5.1 -5.4
3894 23.1 39.9 43.9 58.6
3895 -7.8 -10.3 -8.6 -8.1
3896 50.0 25.8 27.0 35.3
3897 -7.8 -10.2 -3.3 -11.5
3898 -8.7 -8.3 -6.0 -6.0
3899 59.2 47.5 27.2 46.6
3900 59.0 50.7 27.0 37.4
3901 -4.1 -11.3 -8.6 -9.0
3902 -9.6 -6.0 -6.4 -12.6
3903 -3.5 -11.6 -12.6 -7.4
3904 -10.9 -9.3 -3.3 -6.9
3905 -9.3 -12.7 -6.0 -4.0
3906 -8.5 -4.3 -5.8 -10.5
3907 -4.9 -5.4 -10.6 -7.1
3908 -11.1 -11.5 -8.9 -7.2
3909 -5.3 -7.3 -8.0 -10.2
3910 -11.1 -4.9 -3.6 -12.3
3911 50.2 24.0 32.2 50.0
3912 -11.9 -11.7 -12.5 -9.5
3913 54.4 53.0 24.4 50.6
3914 -9.4 -4.9 -8.2 -11.1
3915 -5.0 -4.1 -8.0 -5.2
3916 -4.6 -3.9 -11.5 -11.2
3917 -4.4 -3.9 -8.5 -6.3
3918 35.9 46.0 29.4 26.9
3919 -12.1 -9.4 -11.0 -7.8
3920 -3.5 -10.6 -8.7 -6.9
3921 51.8 35.0 30.9 28.2
3922 51.5 48.7 32.8 51.3
3923 -11.9 -9.2 -7.0 -7.3
3924 -5.8 -4.3 -10.8 -3.5
3925 44.9 55.9 32.2 48.0
3926 -7.4 -5.9 -11.8 -11.3
3927 -10.5 -8.5 -5.1 -6.8
3928 -12.8 -9.7 -5.7 -5.7
3929 34.0 28.4 21.5 42.1
3930 40.1 27.9 42.6 58.4
3931 23.6 40.1 40.3 28.3
3932 -7.4 -9.2 -4.0 -10.4
3933 -3.8 -3.9 -3.7 -4.2
3934 47.3 22.1 54.5 22.0
3935 23.4 32.6 24.6 39.9
3936 -7.8 -10.0 -3.8 -6.9
3937 43.0 30.6 30.6 24.3
3938 58.5 37.0 39.7 57.4
3939 -9.8 -8.4 -4.2 -8.1
3940 -6.7 -5.7 -8.9 -10.4
3941 -11.5 -9.7 -7.7 -6.5
3942 -10.5 -3.8 -11.1 -7.9
3943 25.5 21.2 35.3 53.4
3944 27.5 27.8 54.6 34.2
3945 -4.9 -8.7 -4.6 -10.2
3946 49.2 43.6 55.4 48.1
3947 34.5 25.4 44.8 32.9
3948 -9.4 -8.2 -11.7 -9.8
3949 -12.4 -4.5 -11.5 -10.1
3950 30.5 43.9 28.3 41.0
3951 -5.3 -9.5 -4.6 -4.6
3952 31.0 31.4 28.6 26.0
3953 -4.8 -11.6 -11.8 -12.2
3954 47.9 25.5 54.5 49.2
3955 -10.9 -5.4 -9.3 -5.7
3956 38.7 55.2 28.9 55.4
3957 -9.5 -6.8 -3.9 -12.1
3958 -10.5 -6.9 -7.9 -7.6
3959 23.6 56.7 25.5 53.0
3960 51.3 55.6 31.0 28.3
3961 -10.9 -7.8 -6.4 -6.0
3962 -10.7 -3.8 -11.5 -7.4
3963 -10.6 -7.3 -10.5 -10.3
3964 -11.9 -11.0 -11.7 -6.8
3965 -3.5 -10.1 -3.6 -12.1
3966 -6.7 -8.9 -7.6 -10.1
3967 -6.0 -4.1 -9.8 -3.5
3968 36.5 57.1 32.4 56.7
3969 -5.2 -5.0 -5.3 -9.5
3970 45.8 24.5 54.6 26.8
3971 -5.8 -8.2 -11.1 -8.4
3972 57.8 44.2 45.6 25.4
3973 -5.4 -3.7 -10.1 -11.4
3974 -11.2 -4.3 -4.5 -11.4
3975 -3.3 -12.2 -6.3 -11.7
3976 20.6 55.0 26.9 41.4
3977 27.0 21.7 45.4 47.2
3978 58.9 26.7 40.8 31.4
3979 28.3 25.9 49.8 46.1
3980 -6.1 -4.8 -11.8 -11.8
3981 -7.0 -9.6 -5.5 -3.6
3982 -3.8 -11.4 -11.0 -10.9
3983 52.4 20.5 50.0 25.2
3984 22.5 59.9 23.9 58.4
3985 -11.3 -9.4 -3.6 -7.2
3986 -11.5 -11.0 -11.6 -6.2
3987 -9.8 -8.5 -4.7 -8.5
3988 -7.0 -5.1 -7.8 -3.4
3989 -10.0 -7.2 -6.5 -7.0
3990 24.2 59.6 25.2 26.2
3991 41.3 44.3 33.7 54.7
3992 23.4 24.3 35.4 46.6
3993 -8.8 -8.3 -11.1 -5.5
3994 24.1 46.3 25.9 39.7
3995 -4.7 -11.2 -10.1 -8.1
3996 20.7 58.8 26.1 26.6
3997 -8.1 -9.9 -6.7 -7.3
3998 -9.7 -11.1 -12.4 -4.1
3999 -3.3 -11.4 -4.5 -5.7
4000 55.5 56.3 31.0 45.4
4001 28.5 28.8 44.6 28.0
4002 -12.7 -6.5 -4.0 -11.2
4003 22.2 21.6 39.2 28.9
4004 -11.6 -5.2 -5.3 -4.7
4005 52.7 46.0 35.0 31.4
4006 -6.8 -3.6 -10.1 -6.9
4007 -5.2 -3.9 -3.5 -7.5
4008 56.5 55.3 27.1 22.4
4009 32.3 39.2 58.3 41.8
4010 -5.2 -11.6 -4.5 -6.1
4011 -7.1 -11.8 -8.9 -8.8
4012 52.0 32.5 31.0 47.0
4013 32.7 24.1 58.8 37.1
4014 -12.1 -4.4 -7.1 -9.4
4015 -9.8 -7.9 -6.7 -11.8
4016 -12.3 -10.5 -11.9 -8.4
4017 33.9 59.1 36.6 35.3
4018 -8.9 -11.3 -3.4 -3.2
4019 0.0 0.0 0.0 0.0
4020 -12.7 -9.0 -8.8 -10.7
4021 26.5 47.6 25.7 47.9
4022 -5.2 -3.3 -11.3 -3.8
4023 -11.7 -9.3 -11.3 -4.8
4024 47.6 57.7 52.1 24.0
4025 -6.2 -10.3 -10.1 -8.3
4026 -9.6 -11.3 -4.8 -7.5
4027 -12.8 -10.0 -6.3 -5.2
4028 31.4 45.2 47.7 30.1
4029 -8.2 -7.2 -8.2 -11.5
4030 -8.7 -8.5 -7.9 -11.2
4031 57.4 29.8 22.4 39.6
4032 -5.3 -9.2 -11.1 -3.8
4033 -11.8 -12.0 -10.8 -3.2
4034 -9.6 -11.9 -7.9 -9.0
4035 -5.4 -4.0 -7.0 -8.0
4036 56.9 59.1 32.3 36.7
4037 -10.5 -4.3 -10.2 -4.2
4038 37.1 21.5 34.5 45.2
4039 -10.9 -11.4 -8.3 -8.8
4040 -5.4 -5.6 -3.8 -4.3
4041 -12.3 -8.2 -8.1 -8.3
4042 -12.1 -11.5 -9.4 -5.7
4043 -5.4 -3.8 -6.3 -7.9
4044 -5.8 -5.1 -4.4 -7.0
4045 47.7 52.1 28.0 40.6
4046 25.6 23.5 22.6 25.4
4047 47.5 54.5 39.0 56.5
4048 -7.2 -7.9 -11.3 -8.3
4049 -12.0 -9.3 -4.0 -4.1
4050 -5.1 -5.8 -9.5 -3.5
4051 -7.4 -12.4 -11.4 -7.0
4052 45.6 24.4 52.5 51.8
4053 -4.3 -11.5 -6.3 -12.4
4054 -7.1 -8.1 -7.3 -5.8
4055 -5.7 -7.0 -12.7 -4.1
4056 -12.0 -11.0 -4.5 -4.2
4057 22.1 37.7 35.9 42.8
4058 -10.8 -10.2 -5.0 -11.6
4059 42.8 37.8 42.9 59.5
4060 -12.6 -3.6 -12.1 -5.0
4061 -10.7 -9.3 -12.4 -4.0
4062 45.2 32.9 46.8 48.9
4063 40.7 50.6 24.5 32.1
4064 -8.0 -12.2 -12.5 -4.8
4065 51.8 57.4 53.9 58.8
4066 -11.9 -7.2 -9.3 -3.7
4067 32.7 51.4 26.2 26.7
4068 42.9 33.7 20.4 44.3
4069 -3.6 -11.3 -8.4 -9.5
4070 -8.5 -7.0 -5.6 -10.5
4071 54.8 52.8 33.1 37.7
4072 -11.9 -9.5 -10.7 -9.7
4073 53.4 53.1 45.3 30.5
4074 -8.6 -8.1 -8.5 -8.2
4075 -10.6 -11.9 -5.0 -12.7
4076 55.1 38.3 54.3 55.8
4077 -6.4 -4.8 -10.0 -8.1
4078 -3.3 -10.2 -4.3 -10.3
4079 -12.8 -12.7 -5.9 -6.0
4080 49.3 24.3 35.2 44.3
4081 -9.4 -5.5 -7.7 -11.5
4082 -7.4 -4.0 -7.5 -3.3
4083 37.6 54.7 35.4 53.5
4084 -11.4 -8.2 -6.4 -8.2
4085 -8.4 -8.6 -7.2 -7.8
4086 23.8 36.6 52.0 41.3
4087 -8.1 -7.6 -5.5 -11.6
4088 53.3 48.0 46.8 58.0
4089 -4.6 -4.4 -10.5 -12.3
4090 -7.3 -6.7 -12.3 -9.1
4091 -5.7 -4.9 -6.7 -5.3
4092 53.7 29.7 37.9 41.5
4093 48.6 46.8 37.1 31.3
4094 -7.4 -12.6 -3.6 -6.4
4095 -9.4 -6.3 -8.3 -8.5
4096 58.4 41.5 50.8 54.7
4097 56.2 37.2 43.2 44.6
4098 -5.8 -11.5 -5.7 -4.4
4099 59.0 20.7 57.5 38.7
4100 -3.3 -12.3 -12.3 -9.3
4101 0.0 0.0 0.0 0.0
4102 41.3 28.3 53.2 29.1
4103 -12.8 -12.7 -7.7 -9.8
4104 -5.8 -11.1 -12.0 -8.9
4105 -10.5 -9.9 -4.4 -4.8
4106 -11.8 -9.5 -8.3 -7.8
4107 -10.0 -12.3 -10.5 -6.9
4108 -11.8 -6.8 -12.5 -4.7
4109 -9.3 -5.4 -7.1 -5.6
4110 -10.9 -11.8 -4.0 -8.9
4111 -5.0 -8.1 -7.5 -6.7
4112 -10.5 -9.0 -12.6 -6.7
4113 -8.0 -7.2 -5.2 -6.6
4114 -7.0 -8.5 -11.6 -7.7
4115 55.0 31.6 54.3 28.7
4116 -5.4 -5.7 -3.3 -6.6
4117 35.8 24.9 48.1 46.4
4118 -12.6 -3.5 -9.7 -4.5
4119 -3.5 -4.8 -4.8 -3.2
4120 -12.3 -10.6 -3.4 -4.4
4121 -7.4 -8.4 -9.1 -9.5
4122 -3.5 -6.4 -6.9 -12.4
4123 -7.6 -5.7 -7.8 -3.3
4124 -12.2 -7.5 -4.0 -11.7
4125 33.0 37.2 40.3 58.7
4126 36.6 32.4 49.3 42.1
4127 -10.4 -11.6 -9.6 -3.3
4128 -9.3 -8.0 -7.8 -6.5
4129 -10.6 -6.6 -8.5 -8.7
4130 -7.7 -8.2 -11.5 -5.2
4131 -10.6 -5.1 -4.8 -9.8
4132 29.6 37.6 30.7 45.2
4133 -7.4 -11.5 -8.3 -3.8
4134 26.4 20.3 36.0 51.5
4135 31.5 27.3 58.6 23.2
4136 -11.2 -12.4 -5.8 -5.6
4137 -8.9 -7.1 -9.7 -10.0
4138 -12.2 -3.6 -4.0 -11.0
4139 42.8 47.1 57.5 22.3
4140 -4.4 -5.6 -10.3 -11.0
4141 -11.7 -11.3 -5.8 -4.2
4142 -8.6 -7.3 -6.0 -4.3
4143 53.9 28.7 49.6 22.1
4144 -4.6 -6.1 -4.5 -6.7
4145 26.2 55.6 40.1 34.2
4146 -8.5 -12.4 -12.8 -10.3
4147 59.2 40.2 34.3 46.8
4148 -9.1 -5.2 -9.9 -9.3
4149 37.0 30.7 50.8 54.9
4150 25.1 59.6 20.0 54.3
4151 -7.2 -8.5 -9.6 -9.2
4152 -6.3 -11.4 -5.2 -6.1
4153 -5.2 -11.3 -5.9 -10.9
4154 51.1 36.4 53.4 29.7
4155 55.8 23.8 33.2 51.8
4156 34.6 45.3 20.2 37.0
4157 -12.6 -6.6 -9.4 -4.2
4158 -4.1 -10.2 -10.3 -4.8
4159 -3.8 -7.4 -12.4 -7.7
4160 -10.4 -10.8 -10.0 -11.3
4161 -11.4 -5.0 -6.3 -11.6
4162 50.6 49.7 37.3 58.7
4163 -8.1 -10.6 -7.8 -4.4
4164 -10.7 -3.4 -10.9 -8.3
4165 -6.6 -5.7 -6.4 -9.5
4166 -10.1 -4.5 -9.4 -8.7
4167 -8.7 -6.3 -3.5 -9.1
4168 56.0 53.6 51.0 37.9
4169 -10.5 -10.4 -4.9 -4.5
4170 52.4 50.1 29.8 31.8
4171 43.7 32.7 27.9 45.7
4172 -7.4 -10.1 -4.5 -10.1
4173 -5.3 -4.5 -3.7 -7.9
4174 -7.0 -11.8 -3.8 -10.7
4175 -7.1 -4.9 -8.0 -12.5
4176 29.4 40.4 24.8 35.4
4177 -7.9 -7.1 -5.1 -12.0
4178 -7.4 -5.9 -12.4 -3.9
4179 -11.5 -5.4 -6.9 -10.0
4180 50.4 39.5 46.5 43.1
4181 26.7 38.9 28.2 59.5
4182 51.1 21.2 30.1 56.2
4183 59.8 50.5 38.8 41.6
4184 -6.2 -12.2 -4.8 -10.4
4185 51.6 47.1 41.8 41.0
4186 -7.4 -7.2 -4.3 -7.4
4187 38.9 57.8 35.7 40.0
4188 -11.3 -7.1 -10.4 -8.6
4189 28.1 43.2 38.2 48.9
4190 -9.8 -7.7 -10.6 -4.8
4191 -6.9 -11.0 -9.4 -3.5
4192 -8.4 -4.8 -4.3 -8.6
4193 43.0 48.7 21.9 55.6
4194 -7.6 -5.7 -11.4 -9.0
4195 -7.4 -11.2 -6.5 -8.4
4196 57.3 25.4 54.3 33.5
4197 -5.6 -7.2 -12.2 -4.2
4198 -6.1 -5.0 -7.7 -12.1
4199 -3.5 -7.9 -6.7 -8.1
4200 -9.8 -9.5 -9.0 -9.4
4201 -3.9 -5.0 -3.3 -5.7
4202 -9.6 -10.9 -4.4 -11.2
4203 35.7 36.8 56.3 34.1
4204 33.0 27.5 52.4 41.7
4205 -5.7 -11.9 -3.9 -7.9
4206 22.9 49.3 33.6 38.4
4207 -12.7 -3.8 -6.5 -5.1
4208 -12.0 -7.3 -8.9 -4.3
4209 -6.3 -12.5 -10.2 -12.7
4210 -7.3 -10.3 -8.7 -5.8
4211 -7.1 -6.9 -11.4 -10.7
4212 -11.7 -11.1 -12.0 -7.0
4213 -11.9 -9.9 -3.9 -5.4
4214 -8.1 -9.6 -12.6 -12.0
4215 -8.2 -6.1 -3.8 -4.1
4216 -8.4 -4.5 -12.5 -4.2
4217 -7.6 -7.2 -9.4 -8.3
4218 34.5 35.9 57.4 25.9
4219 -12.3 -9.2 -12.1 -4.5
4220 48.1 26.2 28.3 59.8
4221 40.9 37.4 30.1 29.8
4222 -11.5 -11.6 -11.0 -5.6
4223 -9.4 -5.1 -8.4 -12.1
4224 21.2 36.1 31.0 41.5
4225 -8.6 -12.0 -7.9 -10.1
4226 54.0 36.8 41.3 27.2
4227 -3.4 -11.0 -3.9 -6.3
4228 23.2 27.9 45.6 31.9
4229 -7.9 -6.7 -7.0 -4.3
4230 31.8 23.2 28.3 52.0
4231 47.3 55.5 52.2 56.1
4232 -5.3 -10.7 -7.4 -7.8
4233 -11.7 -12.2 -9.8 -5.4
4234 -12.9 -9.7 -3.3 -7.1
4235 -11.4 -11.6 -3.4 -8.9
4236 37.8 56.3 43.8 51.2
4237 35.2 23.0 23.7 28.6
4238 21.3 42.8 51.0 33.7
4239 27.3 27.8 58.6 20.4
4240 -7.6 -3.9 -10.0 -9.9
4241 -3.4 -3.8 -11.6 -8.8
4242 -7.1 -4.6 -6.0 -3.9
4243 -6.8 -3.8 -3.6 -7.3
4244 -12.7 -10.6 -9.2 -3.6
4245 -4.7 -12.4 -3.6 -12.2
4246 -5.4 -12.8 -6.9 -4.9
4247 37.5 34.4 51.8 21.3
4248 41.2 28.7 32.9 21.4
4249 -11.5 -4.5 -12.7 -10.5
4250 -5.3 -10.5 -8.5 -4.3
4251 0.0 0.0 0.0 0.0
4252 -12.8 -12.2 -7.0 -9.7
4253 -9.6 -10.0 -5.6 -3.8
4254 -11.1 -12.8 -5.1 -8.0
4255 -10.3 -5.9 -8.7 -8.3
4256 58.4 45.8 20.6 55.7
4257 -8.0 -11.4 -11.9 -5.3
4258 38.1 32.5 36.2 37.4
4259 -7.2 -9.2 -3.7 -3.3
4260 -9.5 -3.8 -11.2 -9.8
4261 22.8 57.8 26.8 50.2
4262 -10.9 -12.3 -3.6 -12.7
4263 21.9 55.2 46.1 35.5
4264 -7.4 -5.1 -9.9 -4.7
4265 31.4 26.2 39.2 42.6
4266 -10.6 -7.4 -10.1 -4.6
4267 -10.6 -4.3 -12.3 -7.7
4268 -5.8 -6.9 -6.4 -6.1
4269 -5.6 -8.9 -3.4 -7.6
4270 -7.0 -11.2 -5.8 -12.6
4271 50.6 39.4 21.0 44.8
4272 -7.7 -3.8 -5.1 -10.0
4273 -8.5 -12.7 -10.3 -8.2
4274 -12.6 -9.6 -10.2 -12.3
4275 -6.7 -4.7 -9.7 -7.8
4276 -6.5 -10.4 -9.1 -11.4
4277 -12.9 -3.7 -7.3 -8.3
4278 44.3 45.2 26.2 55.4
4279 -6.5 -12.2 -10.8 -9.5
4280 -11.9 -8.0 -7.9 -5.8
4281 -11.8 -5.1 -5.0 -3.5
4282 41.4 55.3 21.5 34.7
4283 49.9 56.8 55.5 52.4
4284 -11.6 -11.9 -11.0 -5.4
4285 34.6 21.6 44.3 23.8
4286 34.7 59.6 57.4 33.9
4287 -10.7 -10.2 -6.4 -10.0
4288 -11.9 -10.6 -12.3 -9.2
4289 26.4 51.6 34.6 22.7
4290 53.5 26.8 43.9 53.1
4291 -12.5 -9.4 -3.4 -7.4
4292 -7.1 -8.7 -4.7 -3.3
4293 -11.3 -8.8 -5.3 -4.2
4294 -8.1 -6.2 -4.0 -6.9
4295 -3.6 -4.8 -9.5 -3.4
4296 -8.2 -11.7 -10.4 -7.7
4297 -9.1 -3.8 -10.6 -10.3
4298 -8.8 -9.0 -9.9 -4.4
4299 -11.8 -5.1 -6.2 -8.6
4300 -5.3 -8.0 -8.0 -11.1
4301 -11.6 -6.0 -7.5 -8.8
4302 -6.7 -7.8 -11.8 -8.7
4303 -9.4 -8.9 -7.1 -3.6
4304 -9.1 -8.8 -9.8 -12.4
4305 -9.2 -9.1 -8.8 -5.3
4306 -11.0 -12.1 -11.6 -5.9
4307 39.5 33.4 25.0 41.4
4308 47.7 43.9 57.7 24.9
4309 58.0 43.6 43.1 42.7
4310 -11.3 -12.5 -7.5 -3.5
4311 -11.2 -3.7 -3.5 -6.2
4312 -8.6 -4.0 -11.7 -10.9
4313 -6.9 -12.1 -10.0 -11.7
4314 37.1 32.2 49.2 34.5
4315 -7.4 -3.6 -11.3 -12.5
4316 -4.0 -7.6 -6.6 -9.7
4317 -12.2 -12.0 -6.2 -8.1
4318 -10.5 -12.5 -11.7 -9.3
4319 -12.6 -6.3 -7.5 -9.2
4320 35.3 33.9 26.7 41.6
4321 40.4 29.7 27.6 51.6
4322 58.6 53.7 34.4 21.9
4323 -6.8 -11.7 -12.6 -4.1
4324 -3.6 -12.6 -3.4 -8.3
4325 -12.3 -6.3 -5.0 -10.6
4326 26.3 30.5 56.6 55.0
4327 -6.1 -4.8 -5.0 -7.1
4328 -12.9 -11.6 -7.2 -12.4
4329 -5.3 -3.5 -9.0 -7.0
4330 55.2 49.4 47.5 20.5
4331 -8.0 -10.9 -8.6 -11.4
4332 -9.9 -11.6 -11.4 -8.9
4333 -5.0 -11.8 -11.4 -11.3
4334 -11.5 -9.4 -4.7 -12.7
4335 -9.6 -3.5 -5.2 -6.6
4336 -7.0 -10.3 -8.7 -4.7
4337 47.5 22.2 54.4 29.8
4338 28.1 45.4 35.3 26.6
4339 -4.2 -5.2 -11.5 -5.3
4340 -11.4 -5.1 -7.3 -4.0
4341 -3.5 -3.6 -12.3 -4.6
4342 37.6 28.4 44.6 21.7
4343 -5.3 -11.5 -11.3 -5.8
4344 -10.7 -5.4 -6.8 -4.6
4345 52.8 56.0 32.5 40.2
4346 -7.0 -7.7 -4.0 -9.3
4347 -12.7 -6.1 -3.9 -12.2
4348 -12.6 -8.4 -10.5 -10.3
4349 -5.0 -7.4 -7.5 -11.8
4350 52.1 43.9 39.6 44.8
4351 -10.3 -9.4 -7.0 -9.7
4352 -5.6 -4.2 -9.2 -8.7
4353 -10.5 -8.7 -3.8 -9.8
4354 43.9 50.3 31.4 57.5
4355 -5.1 -8.8 -10.6 -10.1
4356 -7.9 -11.3 -7.8 -11.1
4357 -9.5 -7.8 -4.6 -9.7
4358 46.8 54.7 28.2 43.5
4359 41.5 52.2 55.2 45.6
4360 35.0 56.1 59.7 43.9
4361 43.7 31.5 37.5 52.2
4362 -12.9 -7.0 -9.6 -9.5
4363 -12.7 -12.3 -11.8 -10.3
4364 -9.1 -12.3 -9.7 -11.7
4365 -7.9 -12.6 -5.4 -9.1
4366 29.4 30.0 56.7 48.5
4367 -3.3 -4.9 -9.4 -6.4
4368 -8.1 -10.5 -10.2 -5.2
4369 43.4 56.1 55.9 50.3
4370 50.4 53.7 26.2 55.9
4371 -6.8 -5.1 -11.5 -6.5
4372 36.6 31.3 59.8 52.1
4373 41.5 29.9 54.7 31.8
4374 -6.1 -4.8 -11.1 -5.2
4375 37.9 39.3 58.8 29.9
4376 -5.0 -7.6 -10.7 -5.2
4377 44.0 54.9 23.7 57.7
4378 57.0 30.0 51.8 31.2
4379 -3.5 -7.5 -12.1 -6.1
4380 -4.4 -11.2 -5.3 -7.3
4381 -12.9 -6.0 -10.0 -3.5
4382 -9.5 -12.1 -8.2 -4.0
4383 -11.9 -9.0 -5.7 -8.6
4384 -9.9 -10.3 -12.7 -9.2
4385 34.8 58.9 21.2 27.9
4386 37.5 33.5 44.4 32.4
4387 40.9 47.6 27.3 59.8
4388 56.2 57.6 49.8 45.9
4389 22.5 39.6 34.3 26.0
4390 -7.5 -5.8 -9.7 -7.0
4391 -7.6 -5.3 -12.4 -9.4
4392 -3.3 -4.5 -7.0 -11.8
4393 -4.9 -7.2 -12.2 -6.6
4394 29.4 51.2 37.2 27.5
4395 -7.3 -4.1 -11.4 -4.8
4396 -8.1 -5.1 -9.6 -4.2
4397 32.3 52.9 43.0 40.7
4398 54.3 48.4 42.9 35.7
4399 -4.4 -10.1 -8.4 -8.8
4400 -7.3 -6.0 -11.1 -7.1
4401 -3.4 -8.5 -4.2 -8.1
4402 -7.0 -8.8 -12.2 -3.9
4403 57.8 31.5 58.9 53.4
4404 -3.6 -11.4 -4.9 -9.5
4405 -4.4 -9.0 -10.5 -5.9
4406 -3.7 -5.3 -10.3 -12.5
4407 -6.0 -6.2 -3.9 -5.7
4408 32.6 31.2 40.9 56.3
4409 26.2 55.5 39.8 47.1
4410 32.0 29.9 49.7 49.7
4411 -3.5 -9.7 -11.9 -6.8
4412 -6.0 -5.1 -10.5 -9.5
4413 -8.5 -9.8 -12.6 -7.4
4414 28.7 42.8 59.0 24.6
4415 38.9 45.4 38.7 55.5
4416 -8.3 -3.8 -7.7 -10.7
4417 -4.9 -7.7 -9.3 -3.2
4418 -7.1 -9.1 -4.7 -12.6
4419 36.4 54.1 47.2 25.6
4420 -11.2 -10.2 -7.0 -4.0
4421 50.9 39.8 24.9 22.1
4422 -7.6 -7.1 -10.6 -5.2
4423 -8.0 -6.6 -3.9 -5.9
4424 40.1 35.5 36.2 28.8
4425 42.2 49.8 31.6 57.8
4426 50.2 21.3 33.3 22.3
4427 -4.8 -8.5 -10.6 -8.8
4428 -6.5 -6.8 -3.7 -6.6
4429 29.6 29.4 52.9 58.8
4430 -5.3 -3.6 -8.1 -10.8
4431 -12.2 -12.0 -12.0 -5.1
4432 -11.1 -7.7 -5.5 -5.3
4433 -10.4 -7.3 -6.1 -6.4
4434 22.9 27.1 37.3 48.3
4435 32.3 45.0 57.5 48.1
4436 -5.8 -9.7 -6.5 -8.9
4437 23.4 59.3 25.4 40.5
4438 -6.3 -3.3 -4.0 -10.2
4439 -4.0 -11.4 -4.3 -9.6
4440 -7.3 -7.1 -6.9 -4.1
4441 28.2 26.8 34.4 45.0
4442 47.5 53.7 50.0 58.9
4443 -5.7 -5.6 -8.7 -11.1
4444 20.9 32.6 29.9 39.3
4445 -5.3 -11.4 -6.3 -9.3
4446 -11.0 -11.9 -4.2 -7.8
4447 -9.1 -8.3 -9.9 -7.0
4448 -11.1 -11.3 -3.6 -4.5
4449 26.9 54.4 28.0 44.0
4450 21.3 20.1 28.0 28.5
4451 -12.6 -6.8 -8.8 -3.4
4452 -8.3 -11.0 -5.2 -4.6
4453 -4.8 -5.8 -5.4 -8.6
4454 -3.5 -6.4 -6.7 -6.0
4455 -11.6 -12.8 -10.8 -5.8
4456 56.0 52.9 50.3 56.0
4457 25.8 20.1 48.6 32.9
4458 -9.7 -6.4 -4.7 -11.4
4459 36.3 42.5 55.7 51.3
4460 -9.6 -11.4 -5.2 -12.3
4461 -4.6 -4.3 -6.4 -4.2
4462 -5.1 -10.0 -11.4 -9.2
4463 -12.4 -8.8 -6.3 -3.9
4464 -7.9 -8.8 -9.1 -7.4
4465 59.4 34.1 25.3 56.2
4466 49.3 42.7 49.8 38.6
4467 -6.0 -7.1 -4.0 -7.3
4468 -8.0 -7.0 -4.8 -7.4
4469 40.9 28.6 29.5 46.8
4470 43.8 36.2 38.2 54.2
4471 -11.4 -8.0 -5.4 -9.8
4472 -12.7 -4.4 -6.0 -9.4
4473 -11.9 -7.5 -9.1 -5.6
4474 -10.3 -10.4 -10.0 -9.3
4475 55.6 33.8 47.3 50.6
4476 52.0 31.8 42.5 26.0
4477 -7.6 -7.1 -5.1 -11.6
4478 26.2 22.4 26.8 43.5
4479 -9.9 -9.8 -8.9 -7.4
4480 -12.1 -10.9 -7.8 -11.1
4481 37.0 32.4 21.0 37.3
4482 -3.3 -6.6 -4.1 -12.7
4483 24.5 47.6 26.4 52.1
4484 32.3 29.9 45.6 59.7
4485 -9.9 -8.8 -3.7 -4.8
4486 -12.1 -5.1 -5.6 -9.6
4487 38.7 34.7 51.3 49.3
4488 -10.3 -6.7 -8.4 -12.3
4489 -12.5 -10.3 -11.2 -7.7
4490 42.5 58.3 49.4 44.7
4491 -12.8 -9.9 -5.5 -9.5
4492 50.1 39.6 47.5 54.6
4493 -11.5 -6.1 -12.4 -7.0
4494 32.4 46.5 46.0 55.2
4495 58.1 39.9 30.3 52.2
4496 -9.1 -11.7 -9.5 -5.2
4497 -5.4 -10.8 -12.7 -11.4
4498 -12.4 -9.6 -8.1 -3.4
4499 38.7 33.0 55.2 42.2
4500 -8.3 -10.5 -12.6 -5.1
4501 -11.2 -10.8 -9.6 -10.8
4502 36.1 37.0 41.7 21.1
4503 43.3 48.8 57.6 43.8
4504 -9.6 -9.7 -5.5 -6.6
4505 -4.1 -6.9 -3.8 -4.1
4506 41.1 55.7 51.9 44.9
4507 -6.9 -11.0 -7.2 -7.5
4508 50.9 26.6 53.4 43.2
4509 -3.7 -5.7 -8.9 -3.7
4510 34.7 41.0 46.5 33.1
4511 33.8 37.1 20.2 53.3
4512 42.0 22.2 48.8 26.5
4513 -12.7 -6.3 -3.4 -9.1
4514 -9.4 -10.9 -4.8 -10.3
4515 45.4 30.9 58.3 52.0
4516 -8.8 -12.8 -11.8 -6.6
4517 -8.3 -7.0 -5.8 -4.5
4518 0.0 0.0 0.0 0.0
4519 23.3 29.8 45.9 23.7
4520 -4.4 -5.2 -4.9 -11.5
4521 51.5 33.4 51.6 43.3
4522 -7.5 -4.8 -10.6 -11.4
4523 -10.3 -4.8 -5.9 -11.4
4524 -10.3 -6.0 -3.5 -11.9
4525 29.5 27.0 35.0 21.2
4526 33.3 20.8 23.3 21.1
4527 -8.7 -9.8 -11.2 -4.6
4528 -11.2 -11.1 -6.4 -4.7
4529 -10.1 -4.9 -3.6 -5.3
4530 53.2 20.7 50.4 25.1
4531 -12.6 -9.4 -4.0 -8.4
4532 31.5 27.4 22.7 20.8
4533 31.3 55.4 25.3 46.7
4534 -6.2 -12.4 -11.2 -9.2
4535 -8.0 -6.0 -10.7 -4.0
4536 -12.4 -5.9 -5.5 -12.3
4537 25.8 34.4 24.3 43.7
4538 33.0 25.1 40.0 51.5
4539 -5.8 -9.1 -7.0 -4.2
4540 -6.1 -9.4 -11.8 -7.8
4541 -10.9 -11.7 -12.3 -10.3
4542 44.0 30.0 52.7 35.1
4543 39.7 23.8 53.0 43.5
4544 -11.9 -11.8 -4.0 -6.4
4545 -4.0 -8.2 -12.0 -10.8
4546 -8.7 -3.5 -4.6 -9.0
4547 -12.4 -8.1 -8.5 -9.2
4548 38.2 54.1 29.4 27.0
4549 -9.0 -10.1 -11.7 -8.4
4550 -11.9 -5.0 -11.3 -11.5
4551 21.0 54.4 21.9 21.2
4552 -5.3 -4.3 -8.9 -11.4
4553 28.3 20.9 50.7 21.4
4554 -3.4 -7.6 -10.9 -7.8
4555 -9.5 -6.0 -9.5 -11.9
4556 53.5 23.3 35.9 33.2
4557 29.4 25.0 36.4 26.5
4558 58.3 39.7 35.5 47.0
4559 -10.0 -9.2 -7.4 -7.6
4560 -5.0 -10.8 -8.8 -3.5
4561 24.9 36.5 26.2 28.9
4562 -8.8 -4.0 -6.4 -5.2
4563 -3.5 -11.6 -9.8 -9.9
4564 -11.8 -4.2 -11.3 -3.4
4565 30.4 28.6 26.6 22.8
4566 44.7 30.7 29.2 25.7
4567 24.4 44.1 30.8 22.4
4568 -6.8 -9.2 -9.5 -6.8
4569 20.5 33.8 23.8 58.6
4570 -10.7 -10.4 -5.8 -3.4
4571 -3.9 -8.9 -5.4 -5.7
4572 -4.4 -11.2 -5.0 -4.2
4573 -4.0 -10.2 -11.7 -8.6
4574 21.3 41.7 57.6 40.5
4575 -12.5 -12.6 -5.4 -4.7
4576 56.8 33.9 25.9 25.9
4577 -10.9 -5.1 -10.9 -10.5
4578 -5.8 -9.0 -7.2 -5.0
4579 56.3 47.1 32.3 28.0
4580 -11.4 -5.5 -9.1 -8.9
4581 42.7 25.5 31.1 54.6
4582 21.5 54.6 48.3 41.7
4583 45.7 48.1 54.0 58.1
4584 -4.2 -10.7 -9.7 -12.5
4585 -5.0 -4.2 -5.9 -3.7
4586 -11.8 -6.2 -11.0 -9.6
4587 -10.9 -7.6 -10.6 -11.8
4588 -11.0 -8.1 -12.4 -9.5
4589 34.6 28.3 25.9 40.7
4590 -8.6 -6.5 -5.0 -9.5
4591 28.6 21.2 27.7 51.2
4592 52.8 20.0 26.5 31.5
4593 26.9 56.1 33.5 20.6
4594 40.4 26.5 53.5 34.7
4595 -9.3 -8.1 -12.7 -7.1
4596 38.4 23.3 20.6 50.9
4597 -9.6 -10.3 -10.1 -11.5
4598 48.4 34.9 29.2 22.1
4599 57.4 42.2 39.7 52.0
4600 -4.5 -4.4 -6.8 -4.7
4601 47.7 23.5 40.5 45.5
4602 32.1 42.8 54.5 54.7
4603 -10.5 -9.8 -10.3 -9.5
4604 27.1 59.5 30.0 38.9
4605 -11.2 -6.4 -4.0 -11.4
4606 33.1 40.0 37.6 59.8
4607 -12.0 -8.9 -12.1 -5.5
4608 23.7 20.6 32.9 58.3
4609 -7.9 -7.4 -3.7 -4.4
4610 51.8 43.2 57.1 47.7
4611 -10.0 -7.0 -9.7 -4.2
4612 -7.9 -7.3 -5.2 -3.6
4613 -4.3 -7.0 -11.5 -9.2
4614 -6.3 -9.8 -11.3 -8.7
4615 39.1 54.9 23.0 33.2
4616 21.9 34.1 30.1 29.0
4617 42.5 51.1 56.9 21.2
4618 24.1 41.2 35.3 43.2
4619 -10.5 -4.4 -12.3 -10.0
4620 -4.1 -11.2 -8.7 -3.7
4621 50.7 29.6 44.9 45.9
4622 -7.0 -6.8 -8.8 -10.1
4623 25.4 37.7 50.0 40.3
4624 30.3 58.1 21.0 40.3
4625 -7.5 -11.9 -7.2 -3.6
4626 -5.8 -5.8 -12.3 -4.3
4627 -6.1 -6.6 -10.0 -9.1
4628 -6.4 -11.4 -7.6 -7.7
4629 -10.1 -12.7 -3.6 -6.4
4630 -4.3 -12.6 -4.4 -6.5
4631 57.2 58.0 53.5 37.2
4632 -11.2 -11.1 -5.3 -8.7
4633 45.5 34.4 56.2 29.5
4634 -6.5 -10.4 -4.5 -6.4
4635 -11.6 -5.0 -7.8 -11.0
4636 -4.9 -4.9 -10.8 -6.1
4637 -11.6 -4.9 -7.5 -8.3
4638 -8.0 -6.5 -10.9 -10.5
4639 -11.3 -3.3 -10.4 -6.5
4640 -5.7 -4.6 -11.9 -7.3
4641 -11.6 -8.0 -4.1 -10.7
4642 30.5 28.6 36.6 54.6
4643 33.7 35.2 36.0 26.8
4644 -12.3 -6.6 -6.4 -6.2
4645 -9.2 -8.5 -4.7 -8.9
4646 48.2 60.0 25.2 39.8
4647 -12.4 -8.1 -12.4 -12.2
4648 -11.7 -9.1 -7.6 -6.0
4649 53.4 41.9 59.0 25.7
4650 -9.6 -4.4 -11.0 -11.6
4651 -8.1 -7.0 -6.0 -3.6
4652 -7.4 -11.0 -11.8 -7.4
4653 54.6 57.6 24.2 52.9
4654 41.8 36.5 34.9 51.4
4655 -10.1 -8.7 -8.3 -4.0
4656 -10.4 -6.5 -11.2 -3.8
4657 34.1 44.1 41.9 48.4
4658 34.5 47.0 22.1 47.1
4659 -4.0 -5.0 -4.4 -8.8
4660 55.0 49.6 32.8 49.6
4661 36.2 22.9 40.5 50.5
4662 -7.5 -10.9 -5.1 -8.8
4663 -10.8 -9.2 -7.1 -3.9
4664 -6.0 -12.8 -7.0 -4.5
4665 38.1 47.5 57.5 46.5
4666 26.4 53.2 40.4 59.1
4667 59.6 25.1 27.0 25.8
4668 -6.4 -5.1 -11.3 -12.6
4669 28.0 59.0 23.9 54.2
4670 22.3 22.2 43.6 36.2
4671 26.2 43.1 20.9 50.5
4672 -10.2 -9.6 -6.5 -10.9
4673 -7.2 -9.9 -3.3 -12.1
4674 46.2 22.5 26.0 29.0
4675 -7.4 -8.1 -8.0 -6.6
4676 -8.1 -6.3 -10.3 -8.1
4677 27.2 54.1 47.6 52.4
4678 55.0 36.2 39.7 20.6
4679 34.2 34.7 38.1 48.9
4680 -8.5 -12.0 -11.5 -8.8
4681 -7.2 -7.2 -11.6 -3.6
4682 -8.3 -5.6 -8.3 -6.4
4683 60.0 38.7 48.6 40.7
4684 -5.7 -10.5 -11.4 -10.8
4685 26.4 46.8 21.1 20.6
4686 39.0 57.4 28.2 30.5
4687 -4.8 -7.1 -8.6 -5.1
4688 -11.0 -5.3 -3.3 -8.5
4689 0.0 0.0 0.0 0.0
4690 -9.6 -11.7 -4.7 -8.5
4691 -12.2 -11.2 -3.9 -4.5
4692 -12.5 -4.4 -9.3 -5.9
4693 -6.9 -3.5 -10.7 -5.4
4694 -6.3 -11.2 -7.3 -5.5
4695 -6.6 -5.7 -6.9 -10.0
4696 -4.1 -4.6 -10.2 -6.1
4697 46.5 26.2 32.3 31.0
4698 28.2 36.4 41.5 41.2
4699 -3.3 -5.0 -4.1 -3.8
4700 50.1 46.5 52.0 21.9
4701 -6.4 -3.7 -6.9 -7.8
4702 -7.2 -6.9 -10.6 -9.0
4703 30.7 31.3 24.2 53.0
4704 -12.4 -5.9 -5.5 -5.4
4705 -11.2 -9.2 -4.4 -9.5
4706 -6.1 -11.3 -3.6 -11.3
4707 31.0 42.9 57.1 43.0
4708 53.3 42.5 27.8 56.2
4709 -10.5 -6.1 -10.2 -7.0
4710 20.9 37.4 25.7 42.7
4711 33.5 49.0 45.0 57.6
4712 22.6 25.0 59.8 54.7
4713 32.2 52.0 41.5 22.8
4714 -12.1 -9.1 -10.3 -9.2
4715 -8.5 -4.4 -8.0 -11.6
4716 42.2 55.0 34.8 25.9
4717 44.1 57.2 42.4 23.9
4718 -5.1 -9.2 -12.6 -9.6
4719 -5.8 -10.3 -9.2 -4.9
4720 -4.7 -4.9 -7.8 -10.5
4721 -4.4 -7.4 -7.4 -11.2
4722 -12.1 -8.6 -8.8 -4.3
4723 -10.1 -8.3 -8.3 -12.7
4724 31.9 47.1 49.4 23.4
4725 -8.4 -9.4 -8.3 -6.2
4726 -11.2 -9.4 -12.4 -8.8
4727 -3.3 -7.9 -5.4 -3.7
4728 -5.3 -6.2 -10.5 -12.1
4729 -7.4 -8.2 -4.3 -10.3
4730 29.5 35.3 36.1 52.5
4731 20.3 55.0 26.5 57.6
4732 -4.2 -6.0 -11.3 -4.1
4733 0.0 0.0 0.0 0.0
4734 -3.4 -6.9 -7.9 -8.0
4735 -9.0 -4.7 -5.8 -3.3
4736 32.5 52.1 29.4 58.3
4737 -6.9 -9.6 -9.3 -3.2
4738 54.1 32.7 39.0 28.1
4739 -4.7 -11.2 -9.5 -11.3
4740 -5.7 -6.9 -11.3 -9.5
4741 -12.9 -12.3 -10.3 -6.2
4742 -10.3 -4.6 -7.4 -5.2
4743 -8.8 -6.7 -7.8 -9.3
4744 46.9 23.4 28.6 56.0
4745 -3.5 -7.9 -6.0 -7.8
4746 -12.2 -10.8 -9.7 -3.3
4747 46.0 42.2 51.2 41.7
4748 -8.8 -4.2 -8.1 -6.4
4749 -7.2 -12.2 -4.3 -6.6
4750 -9.4 -12.0 -5.9 -11.2
4751 55.5 25.8 47.0 44.3
4752 -5.7 -12.5 -5.5 -10.1
4753 -3.5 -10.9 -8.0 -9.7
4754 -8.3 -9.2 -9.0 -3.2
4755 22.1 53.5 40.1 53.1
4756 43.0 29.5 58.0 23.6
4757 -4.2 -4.5 -5.5 -6.5
4758 44.4 23.7 38.2 37.8
4759 57.4 22.3 57.9 43.0
4760 -12.0 -9.8 -9.0 -9.4
4761 -10.3 -8.7 -11.6 -8.1
4762 -9.4 -7.8 -9.8 -3.5
4763 -11.9 -9.4 -5.6 -4.9
4764 26.5 36.0 57.1 35.0
4765 -5.3 -4.8 -7.1 -7.0
4766 -10.2 -11.2 -12.3 -10.8
4767 -9.6 -12.4 -4.5 -10.4
4768 48.2 41.7 50.8 36.7
4769 -4.1 -11.5 -12.7 -12.4
4770 -4.0 -6.9 -3.4 -11.0
4771 54.0 52.3 42.1 26.8
4772 -11.8 -11.0 -7.8 -5.4
4773 -5.9 -5.3 -10.8 -6.5
4774 28.6 42.1 37.8 27.0
4775 37.6 23.1 41.8 25.3
4776 -11.8 -6.2 -11.7 -8.7
4777 54.9 45.8 56.1 24.2
4778 -12.6 -12.8 -8.9 -6.4
4779 22.5 46.5 54.4 44.7
4780 -6.6 -4.9 -6.3 -10.9
4781 35.6 25.9 31.9 32.2
4782 37.3 42.6 41.3 29.7
4783 -6.3 -7.2 -8.3 -5.8
4784 -3.3 -7.1 -5.9 -11.9
4785 -7.5 -3.4 -9.9 -3.8
4786 -11.7 -10.4 -11.3 -12.3
4787 -12.2 -9.3 -10.3 -5.9
4788 53.2 53.0 35.7 25.7
4789 -5.1 -7.1 -11.1 -6.0
4790 -3.6 -3.5 -11.8 -12.7
4791 -8.4 -9.4 -9.6 -9.7
4792 24.4 29.5 40.4 37.5
4793 29.5 57.9 23.5 24.0
4794 -5.9 -4.5 -4.2 -8.4
4795 -6.2 -10.8 -11.9 -12.6
4796 -5.6 -5.3 -11.6 -7.2
4797 -6.5 -4.4 -5.6 -5.0
4798 42.4 31.9 40.4 39.1
4799 -12.5 -10.7 -4.7 -6.5
4800 34.5 22.4 47.4 49.2
4801 -6.2 -4.3 -10.9 -4.0
4802 -12.9 -8.1 -5.0 -10.6
4803 -7.6 -10.3 -5.0 -6.7
4804 -10.1 -8.1 -12.2 -4.0
4805 -10.5 -7.8 -9.1 -8.8
4806 -10.7 -7.1 -5.1 -6.1
4807 -12.6 -6.1 -11.0 -10.6
4808 -9.6 -11.5 -4.5 -3.2
4809 37.8 20.6 20.2 52.5
4810 24.6 48.5 32.7 43.8
4811 26.6 58.8 20.9 47.1
4812 -6.8 -5.0 -3.5 -10.6
4813 -6.1 -8.7 -9.0 -6.5
4814 -8.4 -12.3 -8.0 -3.8
4815 -11.3 -4.0 -9.4 -10.0
4816 0.0 0.0 0.0 0.0
4817 -11.5 -11.0 -6.8 -6.0
4818 -11.0 -8.6 -11.1 -10.6
4819 41.6 30.9 30.4 21.0
4820 -10.9 -4.6 -7.4 -8.5
4821 21.2 27.1 51.3 48.1
4822 -4.9 -8.6 -6.6 -12.3
4823 24.2 44.0 31.6 46.9
4824 23.6 21.2 28.4 28.9
4825 47.5 51.5 40.9 21.3
4826 -12.7 -4.1 -12.5 -3.5
4827 59.0 55.9 50.9 43.4
4828 -3.5 -10.4 -6.9 -10.2
4829 -8.9 -8.5 -11.8 -5.7
4830 -3.8 -11.7 -8.3 -8.2
4831 -3.3 -5.7 -12.3 -4.7
4832 -5.4 -10.0 -5.4 -8.3
4833 -9.1 -9.8 -10.6 -9.1
4834 -11.1 -5.4 -9.4 -5.8
4835 35.7 58.7 53.9 50.0
4836 -4.3 -3.6 -8.1 -12.0
4837 -3.3 -5.8 -6.9 -4.9
4838 -4.0 -6.2 -6.9 -10.1
4839 34.4 53.8 31.3 54.5
4840 29.6 46.3 56.2 32.4
4841 -11.0 -10.8 -8.7 -12.4
4842 56.9 26.9 59.5 47.7
4843 -10.5 -11.3 -6.1 -3.9
4844 -6.0 -7.4 -12.2 -10.1
4845 20.2 42.6 55.4 57.1
4846 42.8 31.5 31.5 40.5
4847 25.7 32.4 34.5 36.5
4848 45.8 58.1 29.5 36.8
4849 -6.0 -5.2 -9.3 -10.7
4850 -10.8 -4.1 -5.2 -9.7
4851 55.4 33.9 23.5 36.4
4852 -3.7 -7.1 -3.9 -10.9
4853 51.8 53.2 43.0 43.4
4854 -7.7 -5.1 -3.2 -5.8
4855 -9.0 -6.5 -8.9 -6.6
4856 -8.3 -11.5 -7.6 -12.1
4857 -11.2 -4.9 -9.4 -10.2
4858 49.9 44.2 54.6 55.1
4859 -12.2 -6.6 -10.4 -8.3
4860 -5.1 -10.0 -7.3 -10.7
4861 -7.6 -4.4 -8.2 -11.3
4862 48.7 35.0 56.8 29.9
4863 -11.6 -5.5 -12.8 -10.5
4864 -7.9 -8.0 -4.9 -5.1
4865 41.2 48.6 35.3 51.6
4866 -10.9 -12.3 -11.6 -9.5
4867 47.0 39.5 50.6 43.6
4868 -10.7 -8.2 -10.5 -12.2
4869 -6.2 -5.4 -4.7 -5.4
4870 -4.6 -7.4 -3.6 -10.6
4871 -7.3 -10.1 -3.6 -8.0
4872 -8.7 -11.8 -3.9 -9.5
4873 -6.5 -11.1 -5.6 -11.9
4874 -11.3 -6.3 -5.4 -10.4
4875 -7.5 -8.4 -5.3 -11.6
4876 28.7 43.5 25.3 34.9
4877 23.9 21.0 41.2 47.1
4878 -10.8 -5.9 -10.1 -10.5
4879 -8.0 -9.8 -7.0 -5.3
4880 49.6 57.7 25.7 51.4
4881 -6.4 -8.4 -8.7 -4.7
4882 -6.2 -8.1 -8.7 -5.1
4883 54.3 22.2 52.0 54.9
4884 -12.9 -5.0 -7.7 -3.7
4885 -8.6 -7.8 -8.0 -4.0
4886 34.5 55.1 54.8 52.1
4887 -3.8 -8.7 -11.3 -3.7
4888 -11.8 -3.3 -8.7 -12.7
4889 49.1 32.5 45.2 40.0
4890 -11.2 -4.9 -5.6 -11.6
4891 51.4 48.3 42.3 44.0
4892 -10.0 -9.8 -5.4 -5.5
4893 45.1 29.2 57.9 52.7
4894 29.7 27.0 59.5 46.6
4895 32.5 40.6 30.0 53.9
4896 -10.0 -6.0 -3.8 -11.7
4897 -10.5 -10.4 -10.5 -11.5
4898 -3.5 -4.7 -5.5 -9.8
4899 57.8 21.7 21.8 25.9
4900 -11.3 -4.8 -6.5 -10.7
4901 -12.5 -10.4 -5.7 -10.4
4902 -5.3 -7.7 -12.8 -10.2
4903 26.3 26.7 42.1 40.0
4904 45.3 45.8 31.2 56.0
4905 -9.8 -5.4 -12.2 -5.4
4906 -6.0 -7.3 -7.6 -6.8
4907 -12.5 -12.3 -12.0 -7.9
4908 -9.6 -4.5 -8.4 -6.4
4909 37.1 53.1 41.5 39.5
4910 -6.8 -8.8 -12.1 -8.3
4911 -11.9 -11.3 -3.5 -6.4
4912 -3.6 -5.0 -6.7 -9.7
4913 -4.3 -11.4 -7.8 -10.5
4914 -3.7 -9.1 -8.9 -12.4
4915 -6.8 -3.4 -4.1 -9.3
4916 -10.6 -6.5 -11.1 -4.5
4917 41.0 51.9 30.9 28.1
4918 -6.5 -10.8 -4.7 -7.2
4919 41.7 45.2 54.2 38.5
4920 -7.3 -9.0 -10.9 -3.5
4921 -3.3 -12.8 -7.0 -10.9
4922 -8.9 -5.7 -5.2 -8.0
4923 -10.4 -6.4 -3.7 -5.9
4924 -10.1 -12.5 -6.5 -3.3
4925 40.3 37.8 55.3 46.0
4926 -12.6 -7.7 -5.9 -6.9
4927 24.9 40.1 36.9 51.7
4928 27.9 48.5 48.7 58.1
4929 -9.6 -8.0 -4.9 -3.6
4930 -4.7 -4.8 -9.0 -7.0
4931 -8.4 -12.7 -11.9 -8.4
4932 21.8 21.3 36.9 46.9
4933 -11.7 -4.6 -8.6 -8.1
4934 -7.5 -7.7 -5.1 -12.7
4935 -7.8 -9.2 -3.6 -3.5
4936 -11.2 -9.3 -10.9 -12.6
4937 39.3 24.5 22.1 28.4
4938 -3.5 -11.8 -8.8 -4.9
4939 -10.4 -12.4 -7.0 -3.3
4940 42.5 57.5 31.3 41.5
4941 -12.7 -4.7 -9.1 -8.9
4942 -10.3 -8.5 -5.0 -8.6
4943 -4.4 -11.5 -9.1 -10.8
4944 -11.4 -6.7 -4.3 -8.4
4945 -6.7 -4.2 -9.1 -8.9
4946 -11.1 -4.1 -5.6 -4.1
4947 51.9 54.6 56.4 31.6
4948 -3.3 -4.1 -7.7 -7.7
4949 -10.5 -10.0 -9.7 -7.0
4950 -12.7 -12.6 -9.0 -8.9
4951 -8.8 -3.3 -7.6 -6.6
4952 -12.0 -9.5 -4.5 -8.2
4953 -4.9 -6.6 -8.2 -6.2
4954 27.3 35.5 59.8 41.0
4955 -6.7 -8.7 -6.2 -7.0
4956 -3.4 -5.1 -8.4 -5.9
4957 -9.5 -6.1 -5.2 -7.7
4958 -8.3 -12.7 -5.8 -10.6
4959 59.6 36.2 49.0 47.3
4960 -7.6 -12.8 -11.3 -9.0
4961 -8.2 -7.5 -12.6 -9.7
4962 45.6 41.4 47.9 54.4
4963 20.3 32.9 38.1 45.0
4964 -11.5 -12.8 -4.0 -6.8
4965 43.8 30.4 56.0 35.7
4966 -4.8 -7.2 -7.4 -8.7
4967 -5.3 -8.8 -3.5 -11.6
4968 30.0 43.0 48.2 48.2
4969 30.6 23.5 35.9 31.3
4970 49.2 33.9 35.3 23.6
4971 23.2 25.9 21.6 30.9
4972 -11.0 -12.6 -4.8 -6.8
4973 26.9 46.4 27.3 20.0
4974 30.5 45.1 33.8 45.5
4975 47.1 41.2 28.6 35.0
4976 -12.6 -9.4 -11.8 -12.1
4977 24.4 44.7 43.4 31.4
4978 26.1 27.2 24.6 24.6
4979 -3.3 -6.5 -9.3 -8.2
4980 -11.1 -12.8 -5.0 -4.9
4981 -5.4 -9.5 -8.1 -11.0
4982 59.2 41.6 50.8 25.7
4983 43.9 23.2 25.7 52.6
4984 31.9 32.8 54.9 34.4
4985 49.9 25.4 44.3 40.2
4986 -8.6 -7.7 -12.2 -3.8
4987 20.8 49.9 35.4 25.5
4988 -4.3 -12.5 -8.1 -4.9
4989 25.3 46.8 43.5 50.3
4990 38.2 30.4 36.4 27.3
4991 -11.8 -5.3 -9.2 -12.6
4992 -12.6 -3.6 -8.0 -7.4
4993 -9.7 -8.2 -11.2 -11.2
4994 -9.5 -5.1 -11.1 -6.0
4995 -9.9 -11.0 -11.0 -8.5
4996 40.3 20.9 22.3 58.3
4997 55.1 49.2 54.9 26.2
4998 -9.5 -8.5 -6.3 -11.4
4999 45.6 39.0 29.3 50.2
5000 32.4 45.0 51.7 42.6
5001 -6.2 -11.2 -6.8 -6.7
5002 -9.9 -5.2 -4.0 -10.6
5003 -7.5 -5.6 -9.9 -9.0
5004 49.9 53.0 45.6 56.8
5005 -8.7 -10.6 -11.2 -5.9
5006 56.1 42.6 41.3 57.8
5007 58.2 22.6 53.9 48.0
5008 25.3 43.7 35.9 54.4
5009 43.0 29.4 39.0 27.1
5010 -3.3 -9.4 -6.3 -7.5
5011 43.0 57.7 35.8 45.7
5012 -11.8 -8.1 -3.4 -12.5
5013 -5.7 -12.5 -9.2 -6.6
5014 -7.1 -11.3 -12.3 -4.9
5015 -4.6 -7.6 -12.6 -7.7
5016 -6.4 -10.6 -6.7 -3.2
5017 -6.0 -4.8 -4.1 -6.9
5018 -10.3 -5.3 -11.4 -8.0
5019 49.3 21.4 23.4 20.3
5020 -4.7 -4.2 -4.2 -12.6
5021 -4.2 -9.6 -4.5 -7.9
5022 55.4 46.4 44.6 28.0
5023 41.7 25.2 50.7 22.5
5024 -7.8 -7.9 -8.6 -12.3
5025 -5.2 -4.5 -7.1 -8.5
5026 -5.4 -7.3 -4.0 -7.4
5027 0.0 0.0 0.0 0.0
5028 -8.1 -10.5 -9.1 -6.1
5029 45.0 41.4 49.9 37.4
5030 -8.6 -8.5 -12.4 -9.9
5031 -4.0 -10.5 -10.4 -4.5
5032 -4.4 -7.1 -6.6 -7.4
5033 21.5 50.9 34.6 34.9
5034 32.2 33.2 40.7 26.1
5035 45.1 32.5 56.7 37.1
5036 -12.2 -8.8 -7.4 -6.7
5037 -9.0 -5.9 -7.6 -11.3
5038 -5.4 -6.2 -5.9 -9.1
5039 25.1 51.8 58.1 53.1
5040 -7.5 -5.3 -3.4 -6.5
5041 59.0 48.4 55.1 51.2
5042 -6.6 -11.7 -7.4 -6.4
5043 -6.0 -3.9 -7.2 -5.2
5044 0.0 0.0 0.0 0.0
5045 39.9 54.7 26.0 40.2
5046 -6.1 -6.4 -6.4 -5.7
5047 -5.3 -12.2 -8.7 -9.0
5048 21.3 25.3 31.0 29.2
5049 -7.3 -10.6 -3.8 -7.5
5050 -12.4 -10.1 -3.9 -4.1
5051 35.6 27.1 53.7 23.7
5052 -10.4 -12.3 -5.6 -9.6
5053 32.9 26.6 34.8 22.4
5054 -3.8 -6.1 -12.0 -5.5
5055 -7.3 -6.6 -3.7 -7.4
5056 41.4 52.9 42.1 27.5
5057 -8.5 -9.0 -10.0 -10.9
5058 -9.7 -11.9 -11.5 -7.1
5059 -7.3 -7.7 -11.3 -8.4
5060 -12.8 -10.2 -8.2 -4.4
5061 -9.5 -3.7 -5.0 -11.4
5062 -5.5 -10.2 -7.2 -4.1
5063 46.0 44.4 37.6 30.8
5064 -11.9 -4.7 -12.5 -7.1
5065 -8.4 -12.4 -4.3 -9.9
5066 21.2 26.2 26.6 38.6
5067 -5.3 -10.8 -7.4 -7.1
5068 -10.7 -6.1 -6.0 -5.0
5069 -5.3 -10.0 -4.1 -7.4
5070 -6.9 -6.3 -5.2 -8.1
5071 -6.4 -12.6 -7.8 -8.5
5072 -11.6 -5.7 -7.9 -4.8
5073 46.4 59.9 24.6 34.6
5074 26.8 55.9 45.8 25.4
5075 -12.7 -12.1 -4.2 -5.0
5076 34.9 31.1 36.9 36.0
5077 21.8 54.6 39.5 35.4
5078 -11.7 -11.5 -6.2 -10.5
5079 -12.5 -4.1 -6.9 -6.2
5080 46.2 50.9 57.7 28.5
5081 46.0 36.9 51.7 50.0
5082 -11.4 -11.8 -10.2 -3.8
5083 -4.8 -4.1 -4.3 -6.4
5084 -3.4 -6.6 -11.1 -4.1
5085 53.5 59.5 55.2 59.3
5086 29.2 54.3 34.7 40.5
5087 -6.7 -12.6 -6.8 -7.8
5088 28.6 47.7 33.3 52.2
5089 46.0 58.4 40.7 39.6
5090 44.3 40.8 39.1 53.7
5091 -3.7 -8.7 -9.4 -3.5
5092 55.4 56.2 40.4 27.3
5093 -9.6 -9.0 -4.1 -8.2
5094 56.4 40.2 56.4 43.0
5095 36.7 22.5 50.2 21.7
5096 -6.8 -5.4 -9.4 -10.9
5097 52.6 35.1 45.2 32.0
5098 -5.2 -7.8 -7.5 -9.9
5099 40.1 34.9 31.6 50.5
5100 53.6 26.0 42.8 48.7
5101 -9.1 -3.8 -10.1 -11.1
5102 44.7 28.8 20.5 34.6
5103 -5.4 -9.2 -5.2 -5.8
5104 -11.6 -3.5 -11.4 -12.7
5105 30.7 49.2 41.9 23.9
5106 -4.5 -10.5 -3.2 -11.2
5107 -7.4 -7.1 -9.1 -8.8
5108 -10.7 -6.3 -3.8 -4.3
5109 40.0 37.9 34.7 54.7
5110 -9.5 -10.7 -11.2 -11.2
5111 -8.1 -9.1 -6.2 -10.3
5112 39.0 51.8 24.5 46.2
5113 57.7 25.5 41.4 34.0
5114 -4.3 -5.9 -11.9 -7.1
5115 -4.0 -10.3 -12.5 -4.1
5116 28.3 22.7 34.4 56.8
5117 -6.1 -9.2 -5.3 -11.1
5118 -4.7 -7.0 -11.6 -9.0
5119 -6.5 -11.8 -11.2 -7.0
5120 30.2 30.6 44.2 28.0
5121 -8.8 -11.7 -6.7 -9.3
5122 40.2 27.8 42.7 59.6
5123 -8.6 -6.6 -5.0 -10.9
5124 -12.3 -11.7 -5.3 -5.1
5125 27.2 31.9 48.8 31.7
5126 55.1 33.6 54.1 37.5
5127 -6.8 -4.5 -3.5 -6.8
5128 28.8 39.3 28.4 20.8
5129 -10.4 -8.3 -9.7 -11.2
5130 -9.3 -5.1 -5.1 -7.7
5131 -9.3 -3.9 -7.6 -12.5
5132 36.5 58.8 43.1 36.4
5133 42.9 43.2 53.7 56.9
5134 -10.8 -5.8 -12.0 -9.5
5135 33.0 21.8 44.5 23.2
5136 -7.2 -12.5 -4.9 -9.1
5137 -9.0 -6.8 -6.0 -10.5
5138 -5.8 -10.8 -3.8 -11.2
5139 -10.6 -6.5 -6.0 -11.5
5140 44.5 36.8 39.5 27.3
5141 -10.3 -7.3 -12.6 -6.8
5142 -6.5 -10.4 -8.2 -9.8
5143 -6.6 -7.4 -5.3 -11.2
5144 58.3 42.1 44.6 30.3
5145 -5.0 -7.0 -11.5 -12.5
5146 -10.6 -8.1 -11.6 -9.9
5147 -6.3 -8.6 -6.0 -11.9
5148 -7.8 -6.2 -6.0 -8.1
5149 -8.1 -10.1 -5.9 -7.2
5150 -4.7 -3.4 -4.6 -10.8
5151 58.5 42.4 52.5 55.3
5152 -10.9 -10.0 -5.4 -9.1
5153 50.3 20.3 27.4 32.7
5154 -4.3 -6.1 -11.3 -9.3
5155 -3.8 -12.7 -5.7 -9.5
5156 -12.8 -5.0 -3.6 -5.1
5157 32.7 26.3 44.8 45.6
5158 -10.4 -5.4 -3.5 -9.4
5159 -11.2 -5.3 -3.4 -7.4
5160 41.4 23.0 35.7 21.6
5161 -7.7 -6.7 -3.8 -8.2
5162 23.7 49.9 42.5 43.7
5163 54.2 38.7 58.7 24.0
5164 29.3 41.4 36.7 37.7
5165 -3.3 -5.8 -12.2 -4.8
5166 -8.2 -10.6 -8.1 -7.7
5167 26.8 41.5 50.4 55.2
5168 51.5 56.6 38.9 33.3
5169 28.0 34.5 43.4 24.7
5170 48.8 33.6 58.8 56.5
5171 -12.5 -3.4 -12.0 -12.2
5172 -8.9 -7.3 -9.1 -3.6
5173 57.5 25.6 27.3 32.7
5174 -8.9 -6.5 -5.0 -5.2
5175 23.4 30.3 52.3 33.5
5176 -9.3 -11.4 -11.3 -8.1
5177 33.3 26.8 46.8 59.8
5178 34.3 52.3 26.0 42.6
5179 -11.2 -9.2 -9.9 -5.9
5180 -10.3 -11.4 -9.5 -6.7
5181 -6.4 -5.8 -11.2 -5.1
5182 25.6 47.2 46.4 34.8
5183 57.6 28.1 42.8 30.1
5184 21.4 43.9 25.9 31.4
5185 -12.5 -8.0 -9.8 -10.7
5186 -6.2 -5.0 -12.8 -10.4
5187 -9.9 -10.3 -11.4 -10.2
5188 -5.1 -8.1 -10.3 -9.6
5189 27.0 58.3 33.0 50.7
5190 20.4 27.8 44.9 49.2
5191 -5.6 -7.3 -6.3 -6.7
5192 -12.0 -6.2 -9.5 -9.1
5193 32.7 55.6 23.1 22.8
5194 -4.2 -7.1 -4.1 -6.1
5195 -8.6 -12.8 -7.7 -3.6
5196 -11.8 -12.8 -7.9 -6.7
5197 -7.0 -9.4 -5.6 -9.6
5198 -6.4 -12.7 -6.8 -4.5
5199 -12.8 -5.8 -6.9 -4.1
5200 -12.9 -6.8 -7.2 -11.4
5201 21.9 58.6 47.8 50.1
5202 37.0 55.5 54.4 43.0
5203 -7.8 -4.6 -6.1 -3.9
5204 -6.3 -12.0 -6.1 -5.2
5205 -5.6 -12.7 -7.3 -7.1
5206 -6.3 -3.3 -5.5 -8.9
5207 36.2 42.5 35.6 46.5
5208 -10.5 -8.0 -10.1 -6.9
5209 50.6 32.9 42.9 33.7
5210 42.7 40.6 41.6 54.8
5211 -9.3 -8.4 -3.2 -3.2
5212 -6.4 -4.5 -7.1 -5.0
5213 46.5 24.0 47.8 57.4
5214 -4.4 -3.2 -9.5 -12.7
5215 -9.4 -10.3 -9.8 -11.4
5216 50.5 46.4 45.7 30.8
5217 -3.3 -6.9 -4.8 -7.5
5218 32.0 27.1 46.3 39.7
5219 -8.6 -7.6 -10.0 -9.7
5220 0.0 0.0 0.0 0.0
5221 -7.5 -6.2 -8.2 -10.8
5222 -11.0 -6.3 -6.6 -6.6
5223 47.2 26.1 28.1 53.7
5224 -7.8 -5.4 -4.9 -3.4
5225 -8.4 -3.9 -5.4 -3.3
5226 37.9 21.7 59.0 38.4
5227 -8.7 -4.3 -5.7 -5.0
5228 -5.2 -3.8 -9.5 -6.8
5229 51.6 31.5 23.1 56.4
5230 -8.6 -11.6 -9.8 -9.9
5231 40.9 44.7 42.4 58.0
5232 59.7 35.6 49.0 38.0
5233 -10.3 -4.9 -6.8 -11.6
5234 -6.6 -9.5 -3.7 -3.9
5235 -8.5 -7.4 -7.3 -4.0
5236 36.5 22.6 39.7 47.1
5237 20.3 55.5 26.4 33.7
5238 30.1 50.9 47.0 56.9
5239 51.1 42.5 29.7 56.2
5240 -8.9 -10.7 -4.5 -3.9
5241 -12.3 -10.1 -9.0 -9.9
5242 37.2 58.4 59.1 29.8
5243 -9.9 -10.1 -9.7 -4.3
5244 58.4 40.3 43.3 37.8
5245 -8.6 -4.4 -6.9 -11.2
5246 22.8 32.7 28.6 23.6
5247 43.7 22.4 58.7 44.1
5248 30.1 30.4 39.5 24.9
5249 58.4 42.5 51.1 32.6
5250 -4.4 -12.6 -4.8 -7.4
5251 -5.0 -11.2 -5.8 -10.6
5252 -10.3 -9.9 -12.7 -10.2
5253 -9.3 -12.6 -10.9 -3.2
5254 25.9 36.6 22.6 56.4
5255 50.4 39.9 40.2 59.2
5256 -7.8 -3.9 -6.9 -4.7
5257 -8.3 -10.0 -4.1 -11.1
5258 -12.3 -10.9 -12.0 -4.9
5259 57.6 46.7 59.8 24.3
5260 -5.8 -9.6 -10.2 -6.0
5261 -12.1 -8.3 -9.3 -11.2
5262 43.9 20.9 43.5 48.9
5263 42.7 40.0 58.7 47.9
5264 -12.4 -10.8 -4.8 -3.4
5265 -3.9 -6.5 -4.8 -3.9
5266 -10.4 -7.7 -10.6 -11.4
5267 -7.2 -7.4 -6.0 -6.3
5268 -9.3 -7.7 -5.0 -3.6
5269 -9.4 -6.0 -10.5 -7.6
5270 -12.9 -4.9 -6.5 -9.2
5271 21.3 43.2 48.6 26.0
5272 -11.0 -8.3 -4.8 -9.5
5273 -12.0 -3.3 -7.9 -10.1
5274 -5.9 -4.1 -12.5 -10.7
5275 -8.7 -10.3 -3.6 -7.6
5276 -8.2 -10.9 -8.9 -4.4
5277 -4.0 -10.6 -10.9 -10.0
5278 51.1 25.6 29.3 51.9
5279 28.0 37.3 45.0 35.0
5280 -4.7 -10.1 -11.0 -9.6
5281 41.6 29.4 47.2 29.0
5282 -6.9 -5.5 -11.9 -5.2
5283 -5.0 -3.7 -5.2 -12.6
5284 23.7 27.7 22.3 53.6
5285 0.0 0.0 0.0 0.0
5286 39.0 44.0 32.4 27.5
5287 59.8 39.2 56.1 46.4
5288 56.4 22.7 36.6 42.1
5289 36.6 29.0 31.1 23.1
5290 -11.2 -6.6 -5.0 -4.3
5291 -7.0 -11.6 -4.8 -11.6
5292 50.6 35.1 42.8 36.3
5293 -9.8 -11.7 -4.0 -3.8
5294 -7.5 -8.8 -4.9 -4.6
5295 -8.6 -10.4 -11.7 -10.7
5296 -5.0 -9.8 -10.0 -4.5
5297 54.6 49.5 50.9 40.0
5298 -10.5 -12.5 -4.4 -11.8
5299 -6.5 -7.4 -5.1 -3.7
5300 31.1 27.7 35.8 24.0
5301 -10.7 -3.2 -4.6 -11.4
5302 -5.9 -6.5 -7.1 -6.3
5303 28.0 46.8 41.6 20.8
5304 -4.4 -9.4 -7.2 -7.9
5305 -4.4 -8.1 -8.0 -4.6
5306 -8.9 -11.6 -7.8 -12.3
5307 54.0 59.5 42.4 31.8
5308 28.7 50.4 59.5 41.3
5309 -5.3 -7.4 -10.1 -3.6
5310 -3.7 -11.6 -11.2 -6.8
5311 -4.4 -11.7 -8.4 -8.0
5312 47.2 51.1 38.0 27.5
5313 -3.9 -8.5 -11.8 -10.2
5314 30.5 57.9 55.5 32.5
5315 -5.4 -4.8 -12.3 -5.6
5316 42.1 32.7 41.6 25.6
5317 -9.7 -12.5 -6.4 -7.7
5318 -12.9 -12.2 -3.6 -5.5
5319 33.9 50.6 25.0 24.0
5320 57.3 25.6 45.4 38.5
5321 -6.1 -3.3 -6.5 -12.3
5322 -5.7 -10.9 -4.3 -4.0
5323 -6.2 -7.3 -10.2 -8.1
5324 43.2 55.6 53.3 24.7
5325 -5.1 -11.2 -10.4 -11.8
5326 -10.2 -8.2 -9.3 -5.7
5327 25.0 44.9 50.9 39.6
5328 -3.6 -8.3 -7.5 -4.1
5329 26.0 38.1 32.8 21.1
5330 -11.5 -10.9 -11.2 -5.8
5331 24.0 43.4 51.2 40.7
5332 -4.1 -10.5 -6.9 -7.5
5333 -11.4 -7.8 -5.7 -10.8
5334 -5.0 -8.0 -5.7 -7.0
5335 -4.5 -6.5 -11.8 -12.6
5336 -12.6 -12.0 -12.2 -4.8
5337 -9.8 -10.9 -8.4 -9.7
5338 37.5 49.5 22.4 34.8
5339 -11.7 -6.2 -10.0 -10.1
5340 -4.2 -7.3 -10.6 -5.2
5341 -11.0 -7.8 -4.2 -11.4
5342 -12.9 -5.7 -12.4 -7.4
5343 -12.5 -11.7 -6.4 -5.4
5344 -6.8 -10.8 -7.9 -6.0
5345 39.4 59.9 38.3 21.5
5346 -8.5 -6.2 -7.6 -11.3
5347 -10.9 -6.4 -3.7 -4.7
5348 57.4 33.1 48.4 46.9
5349 20.3 55.8 53.2 38.5
5350 -8.9 -4.8 -10.1 -9.0
5351 -4.8 -5.6 -12.7 -6.2
5352 32.8 30.5 38.9 40.0
5353 -4.2 -11.7 -10.4 -3.7
5354 -9.9 -4.4 -4.9 -11.9
5355 -7.3 -6.6 -11.1 -4.8
5356 -7.8 -9.5 -5.7 -7.7
5357 -5.5 -3.4 -12.0 -6.1
5358 34.5 40.6 23.8 49.5
5359 36.7 50.3 25.7 52.9
5360 58.3 37.3 36.1 24.5
5361 -3.5 -10.8 -4.5 -4.3
5362 -6.5 -6.2 -10.9 -3.3
5363 46.4 32.7 27.9 20.6
5364 -7.8 -6.4 -6.0 -6.2
5365 -9.8 -5.8 -8.5 -8.4
5366 -9.8 -4.6 -12.4 -4.1
5367 -6.3 -11.8 -7.8 -6.5
5368 30.5 24.1 29.0 35.1
5369 -9.8 -11.5 -9.7 -5.9
5370 33.7 54.7 22.0 48.8
5371 22.8 47.1 48.5 24.8
5372 -5.0 -6.4 -8.0 -3.4
5373 -8.2 -9.9 -7.5 -8.6
5374 -6.0 -6.4 -6.7 -9.2
5375 26.7 58.2 53.8 43.7
5376 -11.6 -7.3 -12.5 -12.2
5377 44.5 33.1 37.6 23.9
5378 -9.0 -9.2 -7.6 -7.9
5379 -11.1 -11.7 -4.8 -4.0
5380 48.6 25.8 34.4 35.5
5381 -7.6 -6.6 -8.8 -7.2
5382 -3.8 -7.5 -5.2 -12.3
5383 -5.4 -4.5 -6.6 -6.2
5384 -3.3 -11.7 -9.2 -4.3
5385 -11.6 -4.4 -12.0 -12.4
5386 34.1 57.3 34.6 54.6
5387 33.9 52.1 52.1 20.7
5388 -11.3 -11.0 -3.6 -10.5
5389 -7.6 -6.9 -12.3 -8.9
5390 -4.7 -10.4 -12.6 -4.6
5391 -5.2 -6.1 -11.0 -12.6
5392 -8.2 -9.3 -7.6 -6.2
5393 47.5 21.7 52.5 51.8
5394 -8.9 -10.4 -5.7 -10.3
5395 -9.6 -11.3 -4.7 -10.1
5396 36.4 49.0 25.3 51.3
5397 37.1 20.3 52.4 49.8
5398 -6.8 -10.5 -12.3 -10.1
5399 57.1 57.2 49.6 31.5
5400 45.2 31.4 41.4 30.8
5401 28.0 28.6 53.8 45.5
5402 24.1 43.7 27.2 24.4
5403 52.0 43.9 51.0 41.0
5404 -8.2 -6.6 -6.9 -6.4
5405 22.1 22.7 25.6 36.3
5406 -6.7 -11.5 -11.1 -11.6
5407 -12.9 -4.1 -5.0 -5.6
5408 -11.4 -9.9 -6.1 -10.6
5409 39.1 29.4 53.7 37.4
5410 37.2 31.2 45.9 25.3
5411 -9.5 -4.0 -9.7 -9.2
5412 -12.8 -5.5 -7.8 -10.6
5413 -8.0 -10.0 -7.5 -11.4
5414 -4.4 -6.2 -11.6 -10.2
5415 -11.3 -5.9 -5.2 -7.3
5416 50.2 21.1 49.2 36.6
5417 -3.3 -6.1 -11.3 -8.4
5418 -5.1 -4.3 -8.4 -12.0
5419 37.4 29.2 32.3 46.7
5420 25.6 45.1 26.1 59.3
5421 -6.2 -11.0 -8.0 -5.2
5422 30.5 45.6 36.0 51.8
5423 44.5 37.1 46.3 23.1
5424 -10.6 -7.4 -9.7 -3.2
5425 48.0 40.2 26.1 41.1
5426 -11.3 -4.1 -5.6 -4.8
5427 -10.6 -3.4 -12.0 -6.5
5428 53.9 51.7 49.5 42.6
5429 53.7 38.7 46.3 28.7
5430 48.8 37.4 52.5 55.1
5431 -9.0 -4.7 -3.5 -3.7
5432 -7.7 -10.2 -5.0 -8.5
5433 41.8 44.3 49.1 28.0
5434 -6.2 -6.4 -11.3 -12.4
5435 -4.6 -10.3 -12.3 -10.0
5436 36.8 56.2 49.2 23.5
5437 35.2 40.5 25.3 24.3
5438 -5.1 -4.8 -12.5 -9.9
5439 -10.7 -9.7 -10.3 -12.3
5440 45.2 36.6 54.5 37.0
5441 -7.2 -4.2 -7.5 -7.6
5442 -9.4 -11.3 -7.4 -11.9
5443 34.7 36.5 33.0 24.5
5444 59.1 29.9 42.8 25.5
5445 48.2 50.7 21.5 42.0
5446 48.3 36.8 43.8 29.1
5447 55.1 40.8 58.5 47.8
5448 -8.5 -7.1 -10.2 -11.0
5449 -4.7 -7.1 -7.8 -8.8
5450 -12.5 -3.4 -4.8 -4.1
5451 -5.6 -6.4 -10.3 -4.9
5452 -4.3 -4.5 -7.3 -12.1
5453 46.6 50.7 51.3 36.2
5454 32.0 30.1 26.7 20.9
5455 29.0 40.0 26.1 27.4
5456 29.7 49.7 38.0 57.7
5457 -7.4 -5.2 -10.2 -11.3
5458 -3.6 -4.7 -6.7 -4.3
5459 -12.2 -3.5 -7.6 -11.7
5460 -3.4 -9.7 -6.6 -7.9
5461 -7.4 -11.6 -10.1 -12.4
5462 -6.1 -12.7 -4.6 -8.4
5463 -10.5 -10.9 -5.1 -12.5
5464 -5.5 -12.7 -6.6 -7.5
5465 -8.7 -9.9 -3.9 -12.2
5466 -8.4 -10.5 -4.6 -4.9
5467 -7.6 -5.3 -11.9 -8.1
5468 -10.8 -11.2 -9.5 -10.1
5469 -9.5 -12.7 -4.6 -9.7
5470 -12.0 -9.0 -11.5 -4.5
5471 -12.7 -5.5 -6.7 -7.4
5472 -9.6 -9.0 -5.9 -12.7
5473 47.1 39.3 47.0 56.7
5474 59.8 52.4 54.0 20.5
5475 -7.2 -3.8 -12.3 -5.8
5476 -9.8 -12.8 -4.4 -5.3
5477 25.9 20.6 42.9 43.8
5478 -3.8 -4.4 -6.9 -12.2
5479 57.5 21.3 56.2 34.7
5480 -8.4 -10.4 -11.3 -5.4
5481 41.2 43.2 28.9 33.8
5482 -11.1 -5.3 -3.8 -7.5
5483 -11.9 -3.8 -9.7 -3.4
5484 22.4 56.3 37.0 41.5
5485 -5.4 -7.5 -9.4 -9.6
5486 -12.7 -12.1 -9.8 -8.3
5487 58.6 38.1 49.5 48.5
5488 -12.9 -6.6 -9.4 -6.3
5489 56.5 39.3 39.8 36.5
5490 -6.4 -8.5 -10.4 -6.8
5491 -3.5 -4.3 -12.5 -5.5
5492 -5.3 -8.3 -6.6 -3.3
5493 -3.6 -8.5 -6.3 -9.5
5494 -11.0 -12.6 -11.9 -7.6
5495 51.8 44.8 52.8 24.4
5496 -5.0 -10.0 -3.9 -4.6
5497 -11.3 -10.7 -11.2 -6.5
5498 -6.5 -8.2 -9.8 -11.3
5499 -4.1 -4.5 -11.6 -10.1
5500 -9.6 -4.2 -6.2 -6.2
5501 58.9 40.9 54.5 47.3
5502 48.1 35.3 38.6 31.4
5503 -6.3 -11.1 -6.6 -11.4
5504 21.9 57.8 48.8 40.8
5505 44.7 36.6 57.0 58.1
5506 -10.4 -3.3 -7.4 -11.0
5507 -10.2 -4.9 -8.1 -9.0
5508 -11.6 -4.6 -9.8 -8.7
5509 -11.8 -4.2 -3.6 -10.9
5510 -9.2 -12.1 -3.7 -7.2
5511 -6.4 -12.7 -4.7 -11.2
5512 59.8 45.9 26.0 23.5
5513 -10.6 -6.4 -8.9 -11.9
5514 -11.1 -6.2 -9.7 -8.1
5515 31.1 47.4 44.1 37.9
5516 -9.1 -7.2 -5.7 -6.9
5517 -9.0 -11.7 -4.1 -12.6
5518 -5.0 -4.8 -10.4 -8.8
5519 -6.6 -12.2 -8.3 -7.7
5520 -12.2 -7.6 -3.5 -7.5
5521 -9.9 -9.2 -7.1 -6.3
5522 -8.9 -4.8 -5.8 -11.7
5523 -5.7 -9.4 -9.4 -4.4
5524 0.0 0.0 0.0 0.0
5525 -7.8 -11.0 -12.6 -10.6
5526 -11.8 -4.3 -8.2 -4.0
5527 37.7 41.8 41.6 34.3
5528 -10.7 -4.7 -7.8 -11.5
5529 -8.2 -4.1 -12.3 -5.7
5530 30.2 51.5 44.1 49.6
5531 29.7 38.4 48.9 46.9
5532 26.2 53.9 24.8 35.9
5533 25.0 24.2 22.9 45.3
5534 -7.4 -10.2 -12.7 -9.2
5535 34.8 26.0 31.6 21.3
5536 -4.2 -4.3 -9.8 -6.2
5537 -11.0 -11.0 -5.3 -9.8
5538 46.2 48.4 32.0 57.5
5539 23.0 34.9 36.7 45.9
5540 -8.5 -3.3 -12.6 -8.4
5541 47.3 22.2 30.5 25.2
5542 -9.6 -6.8 -10.6 -6.1
5543 -7.5 -9.0 -12.3 -7.3
5544 50.0 52.4 41.8 39.3
5545 -10.2 -7.8 -6.6 -7.7
5546 46.2 57.3 50.0 58.8
5547 46.0 29.3 37.6 23.0
5548 -6.2 -8.4 -3.2 -11.2
5549 43.3 33.6 23.9 50.3
5550 -4.9 -11.9 -7.6 -10.4
5551 35.8 56.6 56.8 59.8
5552 28.6 33.5 38.7 33.1
5553 -12.3 -11.6 -9.5 -7.6
5554 -11.3 -10.1 -6.4 -9.3
5555 -5.0 -12.4 -9.7 -4.6
5556 41.3 58.3 57.7 33.8
5557 26.2 31.6 48.4 48.7
5558 -8.8 -8.6 -4.2 -9.6
5559 -11.6 -4.9 -4.7 -6.3
5560 -9.1 -5.4 -11.9 -7.1
5561 38.6 45.1 49.4 30.1
5562 -8.2 -8.9 -12.5 -9.8
5563 41.4 30.8 31.1 55.7
5564 -4.6 -7.7 -12.0 -5.3
5565 -12.1 -5.5 -7.6 -7.4
5566 -9.9 -10.8 -4.2 -7.1
5567 28.3 46.0 36.9 22.4
5568 50.0 40.7 30.7 36.9
5569 -5.0 -9.1 -12.4 -3.5
5570 40.9 42.0 52.1 34.2
5571 33.6 23.7 42.3 58.2
5572 49.3 24.5 23.1 21.6
5573 -4.3 -8.7 -5.2 -10.5
5574 -5.7 -10.1 -5.6 -5.3
5575 -8.5 -7.9 -9.2 -5.0
5576 -11.1 -8.2 -8.3 -6.7
5577 34.2 59.0 24.8 28.8
5578 34.3 42.5 31.6 33.4
5579 -11.7 -12.3 -10.7 -8.5
5580 -6.9 -6.9 -4.4 -5.1
5581 33.4 28.4 48.5 51.6
5582 -5.5 -8.1 -3.4 -10.3
5583 -8.6 -11.3 -5.5 -7.2
5584 -3.4 -4.8 -4.5 -6.3
5585 -8.4 -9.7 -11.2 -9.8
5586 58.1 27.4 57.0 33.2
5587 42.0 30.2 42.9 42.7
5588 -7.9 -10.3 -12.7 -11.4
5589 -12.8 -8.1 -5.4 -4.5
5590 -9.3 -6.7 -11.3 -9.5
5591 40.6 59.3 52.2 43.8
5592 41.4 31.1 39.8 53.7
5593 25.3 40.8 30.2 30.1
5594 -5.9 -3.2 -6.6 -12.2
5595 39.9 31.5 29.5 26.8
5596 -10.3 -12.8 -6.0 -10.3
5597 34.9 46.4 51.3 59.4
5598 -3.9 -9.1 -5.2 -12.2
5599 -12.2 -12.7 -11.3 -8.0
5600 52.3 29.9 49.2 43.5
5601 -10.7 -12.1 -12.2 -5.6
5602 -12.6 -11.4 -7.6 -10.3
5603 56.7 52.2 26.9 27.5
5604 -4.1 -9.0 -6.6 -9.2
5605 -10.0 -6.5 -9.2 -7.9
5606 -3.4 -10.7 -6.2 -6.7
5607 -7.1 -3.4 -10.1 -4.8
5608 48.6 29.5 59.9 25.8
5609 -4.1 -8.2 -8.5 -3.3
5610 51.3 53.4 30.1 21.4
5611 -8.3 -6.9 -10.9 -4.6
5612 56.1 44.5 54.2 54.4
5613 25.0 49.6 58.5 44.3
5614 32.7 52.1 26.3 39.5
5615 40.2 51.3 58.0 41.8
5616 27.6 42.3 53.5 52.9
5617 -11.4 -6.5 -8.7 -9.8
5618 58.2 21.7 54.3 25.0
5619 -10.2 -3.8 -5.2 -8.9
5620 53.4 44.1 33.6 36.8
5621 -6.2 -3.4 -5.4 -7.2
5622 -9.6 -8.6 -12.4 -7.3
5623 -4.2 -12.2 -10.6 -7.0
5624 -6.0 -8.1 -3.6 -4.5
5625 38.2 52.3 48.2 53.3
5626 39.3 29.0 40.3 29.4
5627 -6.2 -3.6 -8.8 -9.6
5628 -9.1 -4.6 -11.5 -4.1
5629 -9.4 -10.8 -5.1 -5.1
5630 -4.2 -10.2 -4.6 -6.5
5631 -8.7 -9.5 -6.0 -8.3
5632 32.2 51.3 52.2 27.3
5633 -4.4 -11.6 -4.3 -6.3
5634 51.7 44.0 42.1 54.5
5635 -7.0 -12.0 -7.2 -8.4
5636 34.4 22.8 55.6 22.5
5637 -3.6 -11.1 -9.2 -8.2
5638 -6.9 -6.0 -8.9 -12.3
5639 -5.1 -12.8 -10.1 -10.4
5640 -6.6 -4.9 -6.9 -6.2
5641 -12.2 -4.5 -6.1 -9.0
5642 -5.0 -9.0 -12.5 -3.5
5643 -3.7 -8.0 -9.8 -9.9
5644 -4.1 -10.3 -6.3 -6.4
5645 -4.9 -5.4 -12.1 -11.1
5646 -10.8 -6.9 -4.1 -10.4
5647 26.7 51.5 36.5 30.0
5648 37.4 25.5 48.9 35.7
5649 -4.2 -7.6 -12.8 -7.8
5650 32.0 39.6 52.4 31.5
5651 -5.0 -3.8 -3.8 -10.7
5652 44.9 51.1 32.7 52.9
5653 23.9 34.4 50.3 47.2
5654 -10.1 -7.4 -9.7 -11.2
5655 30.5 23.4 23.6 53.1
5656 -4.0 -3.5 -8.0 -8.3
5657 45.3 31.9 27.5 34.5
5658 -9.9 -5.9 -4.7 -7.1
5659 -5.7 -5.9 -11.3 -4.3
5660 -8.1 -7.1 -9.2 -4.7
5661 -4.5 -5.4 -11.9 -9.6
5662 35.4 26.2 43.4 22.5
5663 -12.5 -3.7 -4.0 -4.8
5664 -9.0 -7.5 -11.3 -5.4
5665 52.9 38.2 26.7 20.0
5666 41.1 52.6 54.5 24.0
5667 -8.1 -9.9 -11.5 -7.2
5668 -5.8 -3.5 -11.3 -4.7
5669 -7.3 -3.9 -5.4 -11.0
5670 53.3 47.7 44.3 59.0
5671 -12.1 -8.9 -10.9 -7.3
5672 51.2 45.5 48.6 41.1
5673 -4.6 -8.3 -4.5 -5.3
5674 -8.7 -12.4 -12.4 -7.8
5675 -12.6 -3.8 -9.6 -5.7
5676 20.8 23.4 52.4 33.6
5677 -9.8 -11.0 -12.8 -7.7
5678 26.0 38.3 42.5 57.1
5679 25.9 58.8 43.1 21.2
5680 29.8 48.2 34.4 23.8
5681 21.4 58.2 53.9 50.8
5682 40.2 46.8 27.1 48.9
5683 -5.4 -5.1 -4.6 -9.9
5684 -6.6 -10.1 -11.0 -7.9
5685 -12.3 -12.5 -7.2 -12.3
5686 48.9 36.4 30.3 32.7
5687 -4.2 -6.7 -9.3 -12.4
5688 -6.6 -12.6 -6.9 -7.7
5689 -11.9 -9.1 -3.4 -12.5
5690 25.1 24.5 33.0 22.5
5691 54.8 54.4 55.9 39.8
5692 -5.3 -9.8 -3.8 -11.0
5693 41.1 56.6 45.4 25.0
5694 21.6 57.5 30.5 34.6
5695 -3.3 -7.8 -9.9 -12.5
5696 -12.9 -8.1 -5.6 -9.0
5697 -4.1 -12.3 -6.5 -7.0
5698 58.4 45.9 52.1 35.8
5699 37.8 44.0 55.0 40.7
5700 58.6 39.6 32.4 57.1
5701 50.0 50.9 51.3 57.4
5702 48.1 57.4 23.0 23.2
5703 -3.6 -8.7 -11.7 -7.2
5704 -6.6 -8.8 -4.6 -10.5
5705 -6.6 -6.8 -7.8 -7.7
5706 -6.0 -12.5 -5.5 -3.3
5707 -4.4 -9.2 -7.4 -10.5
5708 -12.8 -8.6 -11.8 -11.8
5709 -5.9 -11.4 -10.9 -10.6
5710 -4.4 -6.2 -10.6 -3.7
5711 58.8 32.9 42.4 23.1
5712 39.9 51.0 49.1 33.5
5713 57.5 59.7 35.8 54.5
5714 33.5 31.6 33.9 24.6
5715 -4.2 -7.4 -5.2 -11.7
5716 -10.9 -6.6 -11.9 -3.5
5717 55.4 23.6 32.0 28.1
5718 -8.9 -4.1 -12.4 -12.3
5719 -4.5 -4.7 -12.3 -6.9
5720 -11.9 -7.7 -12.7 -9.8
5721 38.8 38.9 35.8 49.6
5722 -5.3 -6.0 -8.5 -6.5
5723 -5.3 -10.6 -7.3 -11.6
5724 -9.5 -6.8 -4.9 -9.4
5725 -7.6 -4.4 -12.2 -10.8
5726 54.4 25.7 50.4 59.4
5727 35.5 49.5 49.1 51.4
5728 -7.6 -7.0 -6.9 -3.7
5729 -6.6 -10.7 -11.7 -8.4
5730 -9.5 -5.0 -12.0 -11.1
5731 22.4 59.2 21.0 52.7
5732 -11.3 -10.6 -6.1 -10.1
5733 26.0 37.9 57.6 41.6
5734 -10.4 -7.6 -7.7 -9.8
5735 -3.5 -3.9 -4.9 -4.9
5736 -6.5 -9.8 -7.5 -3.9
5737 52.5 32.2 27.0 23.1
5738 36.9 43.0 37.0 44.8
5739 -12.0 -12.1 -12.3 -11.6
5740 -9.0 -8.7 -6.5 -6.1
5741 -4.1 -4.9 -4.8 -6.0
5742 -11.5 -5.7 -9.1 -4.1
5743 55.5 49.0 56.4 30.7
5744 30.5 35.4 55.8 38.5
5745 -12.8 -6.7 -5.3 -9.9
5746 50.2 44.1 35.9 49.0
5747 34.3 49.8 41.1 25.8
5748 -10.4 -7.0 -6.8 -8.3
5749 56.1 28.7 29.0 32.8
5750 34.9 56.5 45.0 37.7
5751 42.3 28.5 52.7 31.2
5752 -10.4 -6.2 -8.6 -10.6
5753 -10.7 -5.4 -4.3 -10.9
5754 25.0 34.6 24.9 51.2
5755 57.9 53.3 58.6 30.0
5756 36.4 50.0 57.0 41.7
5757 -7.6 -5.6 -8.8 -10.8
5758 30.1 31.9 45.9 43.3
5759 54.6 22.4 46.6 47.0
5760 42.6 57.5 31.5 31.2
5761 -4.0 -10.5 -12.4 -8.2
5762 39.9 44.0 44.2 26.2
5763 51.9 33.5 23.5 51.2
5764 49.2 46.7 41.3 48.2
5765 58.4 51.8 42.4 27.6
5766 -12.2 -6.0 -6.2 -3.7
5767 -7.3 -6.7 -9.9 -3.5
5768 -7.1 -8.2 -12.2 -9.0
5769 -7.9 -10.9 -9.2 -6.0
5770 -10.4 -3.7 -12.0 -9.8
5771 0.0 0.0 0.0 0.0
5772 -12.7 -8.5 -10.4 -8.9
5773 -7.7 -8.3 -5.6 -6.1
5774 55.7 58.9 59.8 36.1
5775 -4.9 -3.5 -4.6 -4.5
5776 -11.9 -7.8 -7.6 -9.3
5777 26.8 51.4 42.1 56.2
5778 52.7 41.2 29.0 29.8
5779 27.4 59.5 53.4 51.7
5780 -7.8 -11.7 -9.8 -3.6
5781 49.0 37.4 56.2 48.7
5782 -5.5 -5.7 -8.1 -7.3
5783 -5.9 -7.7 -9.1 -11.2
5784 50.7 35.3 53.1 39.2
5785 -7.7 -11.1 -12.1 -7.5
5786 -6.2 -8.7 -10.8 -4.2
5787 33.3 37.1 47.5 37.6
5788 -4.2 -7.1 -8.0 -4.1
5789 -5.5 -6.1 -7.9 -12.1
5790 25.5 23.7 50.4 33.0
5791 -7.5 -4.2 -12.4 -12.6
5792 -11.7 -4.8 -3.4 -12.6
5793 22.8 30.7 29.5 30.3
5794 -5.3 -9.6 -9.2 -9.4
5795 49.8 28.4 40.7 22.9
5796 33.8 31.8 57.2 35.1
5797 -3.4 -8.1 -12.5 -9.8
5798 37.6 52.5 44.9 36.5
5799 -10.2 -10.0 -12.1 -11.8
5800 -6.1 -8.0 -5.0 -5.6
5801 -9.0 -4.2 -4.2 -3.6
5802 -6.7 -5.5 -6.3 -3.7
5803 -8.0 -9.7 -9.8 -6.2
5804 -3.9 -10.3 -5.6 -11.8
5805 -7.6 -11.5 -5.6 -11.5
5806 34.0 39.3 58.9 38.6
5807 41.8 41.9 51.0 45.2
5808 -3.8 -5.8 -4.0 -8.1
5809 -12.2 -6.3 -6.1 -7.5
5810 48.4 38.9 31.5 31.0
5811 0.0 0.0 0.0 0.0
5812 -10.9 -5.2 -8.6 -5.0
5813 -3.7 -10.0 -6.0 -10.9
5814 -6.1 -11.8 -8.3 -3.7
5815 -3.6 -11.1 -9.2 -9.1
5816 -9.6 -5.0 -9.3 -11.3
5817 -3.4 -5.4 -5.5 -5.6
5818 -4.9 -11.8 -5.9 -3.3
5819 -5.1 -6.0 -4.5 -11.2
5820 -6.4 -8.2 -9.1 -7.0
5821 -9.9 -4.5 -8.4 -7.0
5822 -5.2 -7.8 -6.8 -4.1
5823 48.1 42.4 48.0 30.7
5824 -10.3 -9.5 -11.5 -12.7
5825 -12.4 -6.0 -11.7 -8.6
5826 -11.8 -7.5 -4.7 -10.5
5827 35.1 59.2 42.1 46.6
5828 51.6 47.3 36.4 32.7
5829 48.8 31.6 40.9 39.6
5830 51.2 32.0 54.1 35.5
5831 -12.3 -9.8 -11.2 -11.3
5832 -10.1 -6.4 -11.6 -8.0
5833 26.7 50.3 23.9 46.8
5834 -12.0 -10.6 -5.1 -5.4
5835 -9.2 -4.3 -3.7 -3.2
5836 41.8 49.4 55.6 29.4
5837 -7.6 -6.1 -9.0 -4.9
5838 -5.9 -12.2 -11.9 -9.4
5839 -11.5 -5.6 -4.4 -7.8
5840 33.5 51.1 43.3 52.1
5841 -5.5 -10.2 -11.7 -7.9
5842 -9.3 -7.7 -7.5 -9.4
5843 59.3 54.6 21.9 38.4
5844 -9.2 -8.7 -7.7 -6.7
5845 -8.0 -9.9 -3.5 -12.4
5846 -9.2 -10.3 -5.5 -10.8
5847 -8.9 -10.7 -10.3 -10.7
5848 -9.5 -12.4 -7.1 -8.6
5849 -12.0 -5.5 -9.3 -7.0
5850 22.7 59.5 24.2 57.3
5851 -8.1 -5.8 -11.9 -4.3
5852 -7.6 -7.0 -5.9 -8.0
5853 24.1 43.3 47.4 23.8
5854 -12.6 -4.8 -5.7 -8.8
5855 32.6 20.1 49.3 56.5
5856 -6.7 -4.9 -9.9 -4.5
5857 25.8 38.6 24.4 27.9
5858 -4.9 -5.0 -9.7 -11.2
5859 21.1 38.1 29.0 42.3
5860 44.0 44.6 46.6 29.2
5861 -8.9 -7.1 -5.1 -3.7
5862 50.9 39.2 24.8 28.2
5863 -8.8 -4.0 -9.5 -7.8
5864 49.8 37.3 54.7 48.6
5865 25.3 49.8 39.0 58.6
5866 -8.2 -12.8 -5.5 -8.6
5867 40.1 44.3 41.9 28.5
5868 -11.4 -7.0 -11.6 -3.9
5869 36.8 50.7 51.0 36.1
5870 -10.2 -12.6 -4.9 -4.4
5871 -4.2 -11.6 -8.0 -3.7
5872 -3.6 -6.5 -8.8 -7.1
5873 48.2 35.8 32.3 57.4
5874 53.3 48.2 49.7 45.5
5875 -5.3 -12.5 -10.3 -6.4
5876 55.1 37.5 44.4 34.7
5877 -8.1 -6.7 -4.9 -11.3
5878 51.8 38.5 37.6 43.0
5879 58.5 22.5 21.2 59.7
5880 -3.6 -11.0 -6.7 -3.6
5881 -12.8 -4.0 -9.9 -6.4
5882 -3.8 -6.5 -9.0 -3.4
5883 40.9 43.1 59.2 25.9
5884 -6.4 -5.7 -10.0 -8.2
5885 52.6 44.3 39.0 31.2
5886 54.9 20.5 21.3 53.9
5887 50.5 52.7 22.6 31.9
5888 37.5 50.5 43.7 39.9
5889 29.8 51.7 28.1 45.2
5890 44.8 41.7 56.5 29.8
5891 -10.0 -9.6 -4.2 -3.7
5892 0.0 0.0 0.0 0.0
5893 -11.9 -9.5 -12.3 -10.8
5894 -7.2 -12.8 -11.0 -11.6
5895 53.3 23.4 59.7 21.7
5896 34.2 40.6 24.3 39.6
5897 -12.4 -11.0 -10.9 -6.4
5898 35.7 51.6 27.1 39.2
5899 -6.6 -11.5 -3.3 -3.5
5900 -8.7 -11.1 -6.0 -8.6
5901 -4.0 -11.5 -9.4 -4.6
5902 -9.7 -5.2 -10.7 -6.9
5903 -11.2 -8.6 -9.0 -3.3
5904 44.0 54.4 57.1 45.9
5905 58.4 31.0 55.7 42.6
5906 -9.7 -8.4 -12.0 -5.9
5907 52.4 49.7 45.1 42.9
5908 -3.7 -4.2 -10.8 -8.0
5909 -11.4 -7.2 -6.3 -6.6
5910 31.4 35.6 55.7 45.4
5911 -9.1 -9.4 -7.3 -9.0
5912 58.6 47.0 25.6 41.0
5913 -5.9 -7.0 -3.6 -5.2
5914 -3.9 -11.5 -3.3 -5.9
5915 -6.7 -9.2 -7.6 -5.1
5916 -9.8 -11.7 -11.3 -3.8
5917 -4.6 -8.6 -4.1 -3.4
5918 -12.8 -7.7 -7.1 -4.5
5919 34.4 35.5 21.3 31.4
5920 -11.8 -5.2 -7.8 -7.0
5921 -6.6 -9.8 -11.0 -6.0
5922 -6.6 -10.8 -4.7 -8.5
5923 -12.6 -8.3 -9.2 -11.8
5924 45.1 24.3 35.5 21.6
5925 -10.7 -3.5 -11.9 -4.1
5926 -4.1 -5.1 -7.2 -9.1
5927 29.2 34.5 20.2 54.6
5928 -6.7 -7.8 -5.1 -9.1
5929 -11.2 -5.3 -8.3 -10.0
5930 46.5 46.4 46.7 27.3
5931 21.9 34.2 49.9 29.7
5932 -3.4 -4.0 -4.7 -10.4
5933 38.2 48.5 42.0 24.9
5934 26.6 50.6 25.3 34.5
5935 -10.6 -7.9 -12.5 -5.8
5936 -4.1 -10.2 -4.5 -3.5
5937 -5.4 -7.4 -11.0 -7.5
5938 27.3 48.9 59.6 32.3
5939 50.8 56.5 24.1 46.4
5940 31.1 22.5 30.0 27.1
5941 -7.8 -3.6 -9.0 -6.9
5942 -3.6 -9.6 -7.6 -5.6
5943 -12.7 -12.5 -4.7 -5.7
5944 33.7 36.4 52.9 22.9
5945 -6.3 -10.0 -5.2 -3.3
5946 38.9 28.0 53.3 24.0
5947 55.3 20.6 29.8 38.6
5948 -3.7 -12.5 -10.5 -7.2
5949 -4.5 -10.5 -3.4 -8.9
5950 -8.2 -10.9 -3.4 -9.8
5951 51.6 56.4 53.4 54.1
5952 -12.4 -4.7 -4.8 -9.8
5953 -7.0 -10.7 -10.1 -9.1
5954 32.4 50.5 59.9 28.1
5955 -7.4 -9.7 -11.1 -7.8
5956 40.6 47.6 37.1 39.5
5957 25.1 32.8 43.4 21.7
5958 -11.9 -3.9 -8.6 -9.1
5959 24.3 21.5 29.9 51.9
5960 -3.4 -11.5 -11.6 -6.9
5961 24.2 42.9 41.6 52.7
5962 -3.4 -11.8 -11.4 -11.6
5963 35.2 54.7 44.7 22.4
5964 -10.2 -5.9 -8.8 -3.2
5965 -6.2 -12.8 -9.0 -12.0
5966 45.9 55.9 37.2 48.7
5967 35.3 41.7 23.6 40.9
5968 56.4 37.1 27.1 49.7
5969 -8.4 -10.8 -6.8 -7.9
5970 59.0 21.1 25.0 59.5
5971 -12.9 -9.6 -8.0 -8.5
5972 55.8 41.2 49.7 55.2
5973 -6.3 -9.3 -5.0 -4.3
5974 -12.6 -3.4 -3.8 -9.3
5975 -12.7 -3.6 -9.7 -5.4
5976 37.1 53.5 34.5 56.8
5977 38.0 26.0 39.1 44.7
5978 -12.2 -10.1 -6.3 -5.7
5979 -4.8 -4.0 -10.9 -12.0
5980 55.3 54.9 48.6 57.5
5981 -11.1 -11.4 -5.1 -6.1
5982 -4.9 -5.3 -4.9 -9.3
5983 -8.1 -6.9 -9.1 -5.4
5984 44.4 38.6 32.6 42.8
5985 24.7 59.5 27.9 59.6
5986 -10.1 -8.4 -4.7 -11.1
5987 -12.0 -5.8 -8.9 -4.4
5988 24.7 49.0 31.8 46.8
5989 -5.3 -11.1 -7.4 -4.8
5990 48.4 38.0 39.1 41.6
5991 57.9 31.9 32.0 44.9
5992 55.0 52.7 28.1 49.5
5993 -4.5 -6.0 -4.5 -8.0
5994 32.8 34.4 25.8 33.1
5995 -6.1 -6.1 -3.9 -3.2
5996 -10.9 -6.6 -12.2 -12.3
5997 -4.4 -11.8 -8.6 -5.8
5998 -10.6 -7.9 -8.8 -10.4
5999 26.1 41.1 43.3 45.9
6000 -5.4 -5.3 -9.8 -6.5
6001 39.6 36.4 24.0 54.8
6002 51.3 59.5 31.9 46.4
6003 -9.8 -11.9 -6.2 -3.4
6004 0.0 0.0 0.0 0.0
6005 -6.9 -8.3 -3.8 -6.0
6006 -11.2 -9.5 -11.1 -11.3
6007 39.2 35.1 38.0 24.3
6008 -5.1 -4.1 -12.5 -4.5
6009 -10.6 -3.4 -8.8 -5.9
6010 35.8 43.6 39.0 43.0
6011 -11.8 -5.9 -11.5 -6.0
6012 -12.2 -4.0 -7.0 -11.9
6013 -3.4 -7.5 -4.2 -10.6
6014 45.8 32.3 51.5 58.4
6015 30.9 43.7 59.8 40.8
6016 -5.0 -12.3 -4.2 -10.6
6017 -4.0 -8.5 -5.4 -11.2
6018 52.3 30.7 21.4 37.7
6019 24.7 27.9 29.7 29.0
6020 -7.4 -12.8 -3.4 -7.1
6021 33.8 48.5 26.3 42.7
6022 -8.5 -3.4 -8.2 -10.7
6023 22.8 31.5 23.2 23.8
6024 -7.4 -9.5 -11.2 -4.4
6025 -8.4 -4.0 -10.2 -8.7
6026 -4.5 -5.9 -6.3 -8.2
6027 -7.1 -7.8 -4.8 -8.4
6028 56.7 33.2 57.1 20.1
6029 23.0 52.4 45.1 55.8
6030 22.7 34.4 26.3 47.4
6031 32.9 23.8 48.8 58.2
6032 -9.0 -9.0 -3.9 -8.7
6033 -8.4 -11.9 -8.3 -4.2
6034 -8.4 -9.7 -6.3 -8.1
6035 -9.9 -11.5 -4.7 -9.6
6036 -8.8 -12.1 -6.0 -6.6
6037 -8.9 -12.4 -11.2 -4.2
6038 -11.3 -7.6 -3.2 -4.7
6039 57.5 59.7 39.0 59.4
6040 -11.1 -8.5 -9.6 -11.3
6041 -4.7 -6.0 -12.2 -10.4
6042 -9.5 -7.6 -9.6 -12.4
6043 50.5 31.9 27.7 36.2
6044 53.8 47.5 54.1 57.7
6045 -9.5 -6.6 -8.2 -5.3
6046 30.7 34.8 55.9 28.9
6047 -11.3 -10.6 -6.1 -9.1
6048 -7.7 -11.8 -8.6 -11.5
6049 32.4 33.8 38.2 49.7
6050 -6.7 -11.8 -7.9 -8.4
6051 55.6 40.6 33.7 23.0
6052 -5.5 -12.7 -8.5 -8.3
6053 -11.9 -7.2 -3.7 -4.1
6054 -11.4 -8.8 -9.1 -8.8
6055 -3.4 -4.3 -4.7 -5.6
6056 -8.6 -6.2 -11.2 -3.8
6057 42.5 53.8 58.6 49.7
6058 -3.7 -4.2 -5.2 -12.1
6059 48.9 25.8 45.7 41.3
6060 -8.9 -12.4 -12.1 -5.0
6061 46.2 31.8 34.6 39.6
6062 24.3 52.1 34.7 47.2
6063 33.4 52.3 27.5 22.4
6064 32.4 52.7 34.4 53.8
6065 55.4 21.9 58.2 43.2
6066 21.4 54.4 21.9 45.7
6067 -11.8 -6.7 -11.5 -11.4
6068 -6.8 -4.7 -9.0 -12.4
6069 31.6 46.2 56.8 57.0
6070 -5.6 -12.3 -7.9 -5.0
6071 -8.9 -6.1 -9.4 -6.4
6072 30.3 28.5 34.0 49.2
6073 52.3 23.6 23.7 49.2
6074 -5.2 -5.4 -8.1 -10.6
6075 -11.8 -7.7 -10.8 -9.1
6076 -3.7 -11.7 -10.1 -3.3
6077 -11.6 -4.8 -10.2 -12.1
6078 57.9 54.1 47.2 38.7
6079 39.4 32.2 37.8 40.9
6080 -10.4 -8.4 -12.4 -6.9
6081 57.4 50.8 42.1 46.5
6082 -7.9 -4.4 -5.3 -7.2
6083 40.4 57.7 21.9 35.6
6084 -11.9 -3.9 -8.6 -6.3
6085 0.0 0.0 0.0 0.0
6086 51.7 28.1 40.4 27.8
6087 36.1 24.5 48.0 34.8
6088 -11.0 -7.6 -6.3 -11.8
6089 -8.3 -12.6 -3.4 -12.7
6090 36.6 20.1 34.8 26.3
6091 38.8 50.3 37.8 40.9
6092 55.5 41.5 59.3 29.8
6093 36.4 41.4 55.5 57.4
6094 -10.9 -11.3 -9.1 -5.5
6095 -6.8 -3.7 -6.5 -11.1
6096 41.4 50.7 27.4 25.4
6097 -11.7 -10.9 -9.1 -8.4
6098 -4.3 -4.3 -5.5 -5.7
6099 -12.6 -8.1 -10.9 -6.1
6100 -11.7 -7.1 -11.0 -5.3
6101 42.7 39.1 46.6 21.9
6102 -10.1 -8.4 -3.3 -8.3
6103 -5.1 -5.2 -3.6 -10.4
6104 -5.7 -8.4 -6.7 -7.2
6105 36.4 30.5 45.0 44.0
6106 -10.1 -11.6 -8.0 -12.2
6107 55.3 44.8 59.1 39.9
6108 -10.2 -3.9 -6.9 -10.2
6109 -5.7 -12.5 -3.7 -7.1
6110 20.5 51.9 54.6 47.0
6111 -8.2 -8.1 -4.8 -9.7
6112 33.5 24.2 24.8 48.3
6113 33.7 38.0 47.8 57.7
6114 -4.0 -5.0 -6.5 -11.8
6115 22.7 35.0 58.8 53.9
6116 -5.0 -12.0 -10.2 -4.6
6117 -7.4 -9.5 -12.1 -5.9
6118 56.5 56.6 25.2 27.0
6119 -9.4 -12.1 -7.3 -3.3
6120 -4.7 -12.1 -8.3 -3.5
6121 38.0 47.5 24.0 35.0
6122 -10.7 -4.3 -7.6 -12.7
6123 22.6 33.6 34.4 41.0
6124 -5.9 -5.3 -6.1 -9.5
6125 49.6 59.4 33.6 27.6
6126 32.2 47.9 20.0 28.3
6127 -12.7 -7.3 -12.8 -10.7
6128 -8.1 -4.9 -12.2 -9.0
6129 52.7 55.8 26.7 50.9
6130 58.3 51.6 27.9 46.4
6131 41.4 23.3 56.7 55.3
6132 -7.9 -8.1 -11.8 -11.5
6133 26.0 36.4 52.1 25.2
6134 52.4 59.0 55.8 21.3
6135 22.7 40.0 41.8 31.1
6136 -7.5 -7.6 -12.2 -11.4
6137 -3.3 -8.4 -3.8 -7.0
6138 -9.9 -6.7 -6.5 -5.2
6139 35.1 46.7 50.8 46.4
6140 20.7 31.9 58.9 24.5
6141 -6.0 -7.3 -6.0 -11.5
6142 -4.8 -7.3 -11.2 -8.1
6143 59.4 48.5 51.1 53.9
6144 -12.3 -9.3 -3.7 -6.7
6145 -7.9 -8.0 -5.1 -10.6
6146 45.9 42.1 31.9 53.8
6147 53.1 51.1 43.7 23.1
6148 -6.5 -7.2 -10.2 -8.4
6149 -5.2 -6.1 -6.1 -5.8
6150 -6.2 -10.3 -10.7 -10.0
6151 42.7 47.8 21.4 20.5
6152 -8.0 -9.8 -6.8 -10.0
6153 -4.2 -8.6 -10.6 -6.1
6154 -11.7 -4.4 -9.6 -7.1
6155 -10.4 -6.2 -9.0 -7.7
6156 -11.1 -5.6 -11.8 -5.3
6157 -12.5 -5.9 -7.0 -8.9
6158 22.6 34.7 26.3 26.8
6159 48.8 34.4 30.2 53.5
6160 45.5 28.9 36.6 39.8
6161 43.3 59.7 59.5 33.2
6162 -5.8 -11.5 -11.6 -5.5
6163 37.0 22.1 28.2 22.4
6164 -6.4 -10.1 -12.4 -9.5
6165 -4.4 -12.0 -4.7 -11.9
6166 -5.6 -4.6 -9.2 -6.4
6167 -6.6 -4.0 -3.5 -8.0
6168 -11.8 -9.5 -3.8 -7.5
6169 -6.4 -7.7 -3.8 -6.6
6170 -11.5 -4.7 -5.4 -11.7
6171 -11.9 -11.9 -3.6 -4.5
6172 58.4 45.7 22.9 55.9
6173 46.4 49.9 50.1 36.8
6174 -11.2 -11.4 -4.6 -4.9
6175 -12.8 -11.2 -10.3 -11.0
6176 -7.5 -9.1 -11.0 -6.0
6177 -5.0 -7.3 -12.7 -10.9
6178 48.7 56.9 27.2 40.5
6179 45.7 22.6 21.5 51.8
6180 55.2 35.7 43.2 21.8
6181 39.6 45.3 25.8 29.5
6182 -11.3 -3.4 -8.0 -11.6
6183 28.0 28.1 45.2 57.4
6184 -7.2 -9.9 -4.7 -5.9
6185 41.5 25.5 59.7 37.9
6186 -12.8 -5.0 -6.2 -3.8
6187 -9.2 -4.8 -12.2 -10.6
6188 30.8 59.6 45.6 38.9
6189 23.6 31.4 26.1 36.0
6190 -10.8 -9.5 -9.8 -6.0
6191 -12.3 -6.4 -12.4 -3.7
6192 43.9 51.7 36.5 46.9
6193 -8.8 -12.0 -6.7 -10.7
6194 37.2 43.4 48.8 42.0
6195 -6.9 -11.7 -3.3 -7.5
6196 39.6 50.1 26.9 40.5
6197 -12.1 -7.4 -4.5 -3.7
6198 -7.3 -10.6 -7.2 -9.3
6199 -5.6 -6.6 -11.8 -6.9
6200 -8.6 -11.2 -10.0 -6.9
6201 54.9 23.7 30.3 43.1
6202 -6.6 -5.6 -4.1 -12.4
6203 -11.9 -9.7 -6.5 -10.9
6204 28.9 53.0 43.3 58.0
6205 -6.5 -11.0 -5.3 -7.8
6206 -6.3 -12.2 -7.7 -10.6
6207 27.6 42.9 27.9 33.3
6208 -10.6 -7.1 -11.2 -12.4
6209 -11.3 -11.1 -7.1 -11.2
6210 51.5 28.1 51.2 39.7
6211 -9.0 -6.6 -10.4 -5.4
6212 -10.6 -10.2 -9.4 -3.5
6213 -12.5 -11.0 -11.7 -8.7
6214 31.4 46.1 56.9 47.1
6215 40.6 59.8 46.5 39.1
6216 -4.4 -6.2 -11.5 -7.2
6217 -8.1 -9.7 -8.7 -6.6
6218 23.2 44.5 33.6 34.0
6219 35.9 30.7 50.8 49.6
6220 -9.1 -7.2 -4.9 -10.9
6221 33.4 52.2 45.3 25.5
6222 -11.3 -10.9 -9.5 -3.5
6223 -4.0 -10.8 -11.9 -7.2
6224 39.1 54.3 59.8 41.2
6225 -12.1 -8.5 -11.8 -6.5
6226 53.4 49.4 51.8 27.4
6227 43.0 33.4 23.9 47.6
6228 37.2 36.0 26.1 53.2
6229 20.8 36.5 56.6 58.6
6230 -6.8 -6.3 -12.6 -10.5
6231 -5.0 -4.0 -9.7 -11.5
6232 -6.1 -9.1 -11.8 -5.8
6233 -4.9 -8.5 -6.4 -4.5
6234 47.4 37.3 22.3 54.1
6235 -10.6 -6.7 -12.8 -3.9
6236 53.4 57.7 32.5 52.9
6237 -3.4 -7.8 -6.7 -5.7
6238 -5.6 -9.6 -9.9 -3.8
6239 56.5 25.8 39.4 48.1
6240 52.0 22.3 34.1 27.0
6241 -9.3 -6.6 -9.3 -7.1
6242 -9.0 -4.4 -11.9 -4.3
6243 20.7 34.6 53.1 45.2
6244 41.8 26.8 41.4 25.9
6245 57.2 53.4 41.4 59.6
6246 30.5 36.6 46.7 24.0
6247 -5.9 -6.4 -12.4 -9.3
6248 -5.8 -11.8 -11.2 -5.3
6249 -8.4 -11.9 -11.1 -4.9
6250 -12.6 -4.4 -6.3 -5.2
6251 29.1 26.1 49.5 50.3
6252 25.2 31.5 43.7 31.3
6253 -9.9 -6.0 -9.1 -5.7
6254 -11.1 -11.0 -7.3 -7.9
6255 -8.4 -3.4 -10.6 -9.9
6256 55.4 33.8 56.5 35.1
6257 -8.1 -9.1 -7.8 -8.2
6258 -4.3 -4.6 -11.3 -10.0
6259 -11.5 -4.1 -10.9 -12.6
6260 26.1 28.1 47.3 41.0
6261 29.2 54.0 52.0 36.8
6262 54.4 53.7 56.2 42.4
6263 -12.3 -6.6 -8.2 -11.3
6264 -9.7 -3.7 -8.5 -4.5
6265 57.8 22.8 50.2 50.4
6266 46.4 25.0 23.2 34.9
6267 -4.6 -10.1 -7.9 -12.6
6268 26.2 33.4 55.6 36.5
6269 -11.0 -5.0 -10.6 -6.0
6270 -10.7 -9.8 -3.2 -3.5
6271 -9.4 -9.3 -10.1 -5.6
6272 -11.5 -11.0 -6.8 -7.2
6273 -3.4 -10.3 -8.1 -10.8
6274 -12.6 -11.2 -5.9 -11.6
6275 45.7 24.7 26.0 46.5
6276 22.0 24.5 27.6 57.4
6277 23.8 44.8 48.2 38.4
6278 58.7 22.1 22.9 50.2
6279 36.2 50.0 26.4 26.8
6280 36.2 51.8 28.7 20.2
6281 35.0 38.0 55.4 33.7
6282 -10.9 -12.7 -7.8 -10.4
6283 -4.0 -12.1 -6.2 -12.1
6284 30.1 52.0 20.7 21.3
6285 -4.6 -7.8 -5.8 -5.9
6286 55.7 27.1 46.0 30.4
6287 29.3 27.5 21.3 50.1
6288 -10.6 -5.1 -3.6 -7.5
6289 33.6 52.2 50.8 49.6
6290 44.9 44.7 29.0 36.3
6291 59.6 28.0 49.8 45.1
6292 58.5 44.2 53.8 28.6
6293 52.8 28.7 29.9 25.2
6294 42.2 48.8 54.0 57.8
6295 0.0 0.0 0.0 0.0
6296 -12.0 -6.8 -7.6 -11.8
6297 24.9 34.4 50.3 49.8
6298 -11.8 -4.6 -10.1 -7.0
6299 -7.8 -6.6 -8.4 -12.2
6300 -4.1 -12.2 -5.5 -10.7
6301 29.0 45.8 53.8 48.0
6302 46.7 29.4 49.9 29.9
6303 -8.8 -9.4 -6.8 -8.0
6304 -8.2 -9.1 -4.4 -7.2
6305 -12.4 -4.2 -6.7 -6.7
6306 -5.4 -6.8 -10.8 -6.4
6307 -3.6 -10.1 -8.6 -3.9
6308 -11.7 -7.5 -8.8 -8.5
6309 -11.7 -10.2 -5.2 -10.9
6310 20.2 31.1 58.9 32.3
6311 -7.0 -4.4 -5.0 -4.4
6312 -5.9 -10.6 -4.8 -8.5
6313 -4.9 -5.2 -11.4 -4.8
6314 -11.3 -4.1 -10.9 -4.6
6315 -10.7 -11.3 -8.9 -6.3
6316 59.6 43.2 46.1 38.8
6317 49.8 32.2 30.9 28.0
6318 -3.5 -4.5 -12.6 -5.4
6319 30.4 46.0 41.5 59.4
6320 29.5 39.7 25.6 58.1
6321 -9.8 -6.1 -8.9 -9.5
6322 59.8 56.5 54.9 38.8
6323 -9.3 -5.4 -11.2 -11.4
6324 -7.0 -7.7 -6.4 -6.1
6325 -6.1 -8.7 -3.9 -12.1
6326 37.7 43.6 50.2 25.5
6327 45.1 55.4 49.8 34.1
6328 51.2 51.9 55.4 22.5
6329 -3.6 -9.5 -3.8 -10.0
6330 44.6 26.3 38.2 33.9
6331 -4.6 -3.7 -6.5 -9.4
6332 57.3 22.8 41.3 32.8
6333 -6.8 -7.7 -5.6 -9.4
6334 -10.5 -5.1 -4.2 -12.7
6335 44.9 53.4 43.8 23.1
6336 46.0 51.4 44.4 27.9
6337 -5.6 -10.5 -10.3 -5.9
6338 43.5 58.7 37.5 38.7
6339 -5.5 -8.7 -10.2 -11.3
6340 -10.5 -10.9 -3.5 -3.9
6341 41.5 23.8 38.6 57.8
6342 30.8 48.0 52.1 20.5
6343 -5.5 -6.5 -7.2 -5.2
6344 -3.9 -10.9 -7.5 -10.5
6345 51.0 37.7 39.6 26.4
6346 31.7 43.7 22.3 59.2
6347 -12.5 -7.7 -6.8 -8.3
6348 38.3 46.4 33.5 27.1
6349 -4.8 -10.2 -11.1 -4.3
6350 -8.3 -8.4 -5.9 -7.6
6351 -6.1 -4.1 -6.2 -8.9
6352 -4.9 -3.4 -9.5 -10.4
6353 41.2 46.2 37.8 50.8
6354 58.8 39.0 59.0 25.9
6355 -7.9 -6.9 -11.7 -6.3
6356 30.3 27.8 38.9 45.9
6357 -7.5 -4.4 -4.7 -9.9
6358 48.2 36.2 30.8 45.2
6359 -4.7 -4.1 -4.5 -7.0
6360 -8.7 -11.6 -8.9 -10.4
6361 52.6 33.3 24.7 58.5
6362 59.8 26.1 42.5 30.9
6363 -4.5 -5.3 -5.8 -10.4
6364 -9.1 -9.3 -9.5 -12.1
6365 -3.7 -10.5 -9.4 -5.3
6366 35.8 58.7 52.5 34.9
6367 39.7 35.2 40.8 23.4
6368 55.6 41.3 31.9 26.7
6369 -3.5 -8.6 -6.7 -4.0
6370 -7.6 -9.1 -10.6 -11.7
6371 -12.9 -4.2 -10.5 -12.1
6372 44.6 22.9 40.3 25.7
6373 35.6 43.6 36.8 23.9
6374 49.4 57.6 52.6 38.3
6375 22.8 35.8 48.7 53.5
6376 -3.7 -8.0 -12.4 -9.9
6377 -8.5 -12.0 -7.0 -9.2
6378 24.7 24.3 54.1 53.7
6379 -10.4 -11.2 -12.4 -9.6
6380 0.0 0.0 0.0 0.0
6381 55.4 29.7 45.4 20.5
6382 -10.2 -7.8 -8.2 -10.2
6383 -3.3 -12.5 -12.4 -7.0
6384 21.8 24.4 31.6 35.4
6385 35.3 44.4 51.2 58.4
6386 -4.2 -5.9 -8.2 -3.6
6387 -12.2 -5.5 -3.6 -11.8
6388 52.7 34.6 26.6 36.4
6389 50.2 39.3 21.5 38.6
6390 -3.3 -4.5 -7.8 -11.5
6391 -9.7 -10.6 -11.2 -9.7
6392 -11.3 -7.7 -10.2 -6.3
6393 -5.0 -8.1 -5.1 -12.2
6394 33.5 49.6 44.5 21.1
6395 55.2 47.3 52.6 37.9
6396 58.6 28.8 27.8 35.9
6397 -10.1 -12.8 -9.5 -4.5
6398 -7.0 -7.4 -6.6 -10.7
6399 -7.2 -12.8 -3.6 -12.2
6400 -6.0 -10.2 -11.4 -4.0
6401 38.7 32.0 40.4 56.9
6402 42.5 57.0 20.6 54.1
6403 28.6 34.6 25.1 52.9
6404 36.0 42.5 58.9 56.1
6405 49.3 40.7 24.4 31.6
6406 -12.4 -11.5 -4.7 -11.3
6407 51.3 45.8 46.1 27.6
6408 45.2 43.5 57.2 41.8
6409 52.0 47.8 38.4 22.4
6410 -4.5 -5.8 -7.2 -9.8
6411 -6.0 -3.2 -10.5 -12.0
6412 -9.0 -10.6 -3.3 -5.1
6413 30.2 31.3 50.8 59.0
6414 49.4 22.2 23.4 35.8
6415 42.5 30.1 36.8 52.7
6416 -7.1 -5.9 -11.0 -8.5
6417 -12.4 -7.7 -4.5 -6.2
6418 25.4 41.5 42.8 42.6
6419 -8.5 -11.3 -8.2 -12.5
6420 0.0 0.0 0.0 0.0
6421 -9.8 -7.2 -9.5 -8.2
6422 -8.2 -4.1 -10.5 -8.9
6423 -8.5 -6.9 -8.9 -8.5
6424 -12.6 -9.7 -5.0 -7.9
6425 -9.1 -9.8 -11.1 -11.7
6426 52.0 26.6 27.1 26.2
6427 -7.0 -8.0 -9.5 -11.5
6428 -5.0 -8.8 -6.3 -5.4
6429 -8.0 -8.8 -9.3 -8.9
6430 44.1 52.0 40.4 56.5
6431 -6.7 -11.4 -11.8 -10.0
6432 -10.4 -3.5 -6.5 -3.6
6433 -9.2 -3.8 -5.1 -7.9
6434 53.7 50.0 53.8 52.6
6435 -12.7 -8.1 -12.4 -11.5
6436 37.4 28.3 41.7 29.1
6437 -4.9 -8.7 -11.4 -10.2
6438 59.4 52.7 39.0 41.0
6439 -7.8 -7.8 -11.4 -5.3
6440 21.9 42.3 24.1 38.0
6441 -6.3 -8.8 -4.7 -10.3
6442 -4.0 -8.1 -8.8 -3.9
6443 44.2 45.5 42.8 26.3
6444 -12.7 -9.5 -8.2 -7.0
6445 -5.7 -7.6 -7.2 -9.3
6446 -6.7 -8.9 -9.0 -12.1
6447 38.2 29.0 36.0 28.4
6448 52.2 40.2 41.7 46.3
6449 -4.5 -10.5 -6.2 -10.2
6450 -4.1 -8.5 -5.4 -11.2
6451 -8.5 -5.2 -8.0 -6.9
6452 23.9 37.0 51.3 20.1
6453 -11.1 -10.3 -8.5 -7.8
6454 -10.6 -3.8 -9.9 -12.6
6455 -8.2 -5.1 -3.5 -9.0
6456 -11.7 -8.9 -4.7 -4.6
6457 55.5 54.7 52.7 32.0
6458 -10.6 -10.9 -6.1 -11.2
6459 34.7 57.2 50.6 35.6
6460 -9.4 -10.6 -7.2 -6.7
6461 -7.2 -6.5 -12.3 -5.8
6462 56.7 34.2 44.3 59.4
6463 0.0 0.0 0.0 0.0
6464 20.7 28.4 32.4 24.2
6465 -6.5 -5.5 -9.9 -4.1
6466 56.1 54.2 43.3 29.5
6467 -3.7 -4.4 -11.6 -11.2
6468 -10.7 -8.4 -8.6 -9.9
6469 -12.6 -5.9 -4.3 -10.4
6470 -6.0 -3.8 -12.6 -10.3
6471 -10.1 -6.9 -7.5 -12.0
6472 45.8 46.6 34.7 58.4
6473 35.1 26.2 52.0 22.4
6474 -12.4 -6.2 -12.5 -8.9
6475 44.1 21.2 27.0 39.8
6476 -4.5 -10.2 -12.5 -11.0
6477 -4.1 -12.0 -3.2 -7.7
6478 50.8 56.1 32.0 29.0
6479 -6.9 -8.4 -11.9 -8.2
6480 39.9 39.9 51.9 30.2
6481 -12.9 -12.3 -3.6 -8.9
6482 22.7 47.5 57.6 43.0
6483 59.2 57.7 40.2 58.3
6484 -4.8 -6.2 -3.2 -5.0
6485 -6.4 -8.2 -6.4 -12.0
6486 -5.1 -9.1 -7.2 -7.7
6487 -8.6 -10.4 -10.3 -8.8
6488 31.6 36.6 37.6 25.0
6489 -8.8 -5.2 -10.5 -5.0
6490 -11.9 -10.7 -11.6 -6.5
6491 52.7 34.3 41.3 31.4
6492 53.8 23.6 58.7 54.1
6493 -8.9 -9.7 -6.0 -7.4
6494 -11.5 -12.4 -12.7 -10.2
6495 -11.1 -8.6 -4.5 -11.2
6496 25.5 46.8 28.3 34.7
6497 0.0 0.0 0.0 0.0
6498 -7.5 -10.5 -10.6 -12.7
6499 -9.4 -7.2 -9.4 -4.0
6500 -9.1 -8.8 -8.5 -5.2
6501 -10.2 -9.9 -5.2 -10.9
6502 -4.8 -9.2 -5.6 -7.5
6503 43.9 26.2 40.0 36.9
6504 -10.8 -9.2 -3.6 -6.2
6505 -3.2 -4.8 -11.3 -3.7
6506 -4.9 -11.8 -9.1 -8.4
6507 -8.1 -8.2 -8.0 -7.7
6508 30.9 23.6 44.3 38.7
6509 -6.5 -9.5 -4.3 -9.4
6510 56.7 57.4 35.6 57.9
6511 -5.2 -8.7 -9.1 -7.6
6512 52.0 55.1 29.9 46.4
6513 35.4 28.6 50.3 30.4
6514 -7.5 -11.8 -5.1 -3.5
6515 26.0 32.7 26.4 53.7
6516 -9.8 -4.0 -6.1 -9.6
6517 42.5 39.7 23.9 36.8
6518 40.1 53.1 46.5 52.2
6519 29.7 42.6 28.7 54.1
6520 -8.7 -10.8 -10.6 -8.2
6521 -4.8 -10.1 -10.1 -7.6
6522 30.7 39.7 40.1 48.8
6523 21.3 44.9 20.5 54.9
6524 -8.2 -6.8 -8.5 -12.4
6525 53.4 37.9 59.3 22.5
6526 -4.8 -9.4 -9.3 -11.3
6527 27.8 20.1 54.6 45.9
6528 -11.7 -11.3 -7.7 -8.5
6529 -9.5 -11.7 -4.0 -11.9
6530 53.3 42.5 59.8 31.7
6531 41.6 44.5 36.8 53.8
6532 -7.6 -10.6 -6.7 -7.8
6533 -3.5 -7.3 -9.3 -7.8
6534 58.9 23.6 48.4 46.7
6535 33.7 58.4 58.7 50.5
6536 -5.4 -10.8 -9.2 -10.4
6537 -10.2 -10.4 -3.6 -5.3
6538 -3.9 -5.4 -6.6 -6.9
6539 27.2 37.1 25.5 33.3
6540 -8.3 -5.5 -4.6 -11.8
6541 44.9 32.6 35.0 54.8
6542 -11.0 -10.3 -11.6 -5.1
6543 -12.7 -6.1 -5.0 -5.0
6544 -4.3 -3.6 -8.8 -6.1
6545 26.2 22.1 43.7 33.5
6546 -6.1 -9.3 -10.2 -4.2
6547 -6.4 -10.0 -8.0 -8.3
6548 32.9 49.2 51.8 42.9
6549 -9.9 -9.6 -6.7 -12.4
6550 30.7 20.9 26.9 28.0
6551 48.8 49.4 57.4 59.6
6552 -5.4 -11.2 -9.5 -6.7
6553 27.7 21.5 49.3 55.9
6554 26.7 47.7 34.8 25.0
6555 -3.4 -4.5 -8.1 -11.4
6556 -7.6 -9.3 -5.9 -5.3
6557 49.2 59.6 29.6 32.1
6558 -10.3 -5.3 -6.7 -9.7
6559 55.7 46.9 36.2 41.7
6560 -6.2 -5.0 -12.0 -11.5
6561 -6.3 -4.0 -12.3 -11.0
6562 -10.8 -7.5 -6.0 -10.1
6563 -11.7 -4.6 -8.3 -4.6
6564 22.3 26.0 20.1 25.0
6565 28.3 59.3 21.9 41.8
6566 -10.7 -9.2 -4.0 -9.6
6567 -4.5 -8.1 -8.5 -4.2
6568 36.3 28.2 38.1 51.5
6569 -6.1 -10.1 -12.6 -7.1
6570 -4.9 -5.0 -7.0 -11.2
6571 -9.3 -12.5 -9.3 -4.2
6572 44.8 59.4 36.8 58.6
6573 -5.8 -4.1 -9.5 -10.4
6574 42.3 42.0 44.6 49.1
6575 43.4 56.5 35.1 35.8
6576 -3.8 -7.0 -12.4 -6.9
6577 -4.3 -5.2 -9.9 -11.8
6578 -11.8 -6.1 -8.8 -4.8
6579 -4.5 -9.0 -3.7 -4.6
6580 -3.6 -10.1 -10.3 -5.1
6581 -7.9 -10.7 -6.9 -7.9
6582 29.1 38.3 55.4 39.1
6583 23.2 25.3 54.3 21.1
6584 38.7 21.0 51.5 57.5
6585 56.2 37.7 35.8 52.5
6586 -4.6 -10.2 -7.9 -12.0
6587 56.0 22.7 48.5 51.0
6588 23.0 32.8 52.3 37.5
6589 -11.5 -3.7 -7.2 -8.1
6590 -7.8 -7.2 -9.3 -7.3
6591 26.5 46.4 58.3 26.0
6592 -4.7 -7.7 -4.9 -11.3
6593 -6.8 -8.6 -9.0 -8.7
6594 27.9 39.4 49.5 42.2
6595 -4.2 -9.7 -8.1 -5.0
6596 -10.5 -4.1 -4.3 -6.6
6597 -3.3 -7.1 -8.2 -12.7
6598 -7.9 -12.4 -9.3 -10.2
6599 -8.7 -8.6 -9.6 -4.0
6600 -8.0 -4.6 -4.7 -5.4
6601 -10.7 -9.5 -11.4 -12.2
6602 -9.4 -8.6 -10.2 -8.9
6603 40.1 52.5 47.1 35.9
6604 -8.4 -4.8 -9.7 -11.2
6605 -4.7 -12.5 -4.6 -5.1
6606 -6.9 -3.5 -6.5 -8.9
6607 -5.9 -12.6 -6.5 -10.8
6608 0.0 0.0 0.0 0.0
6609 -5.2 -4.8 -4.3 -4.2
6610 44.3 53.6 21.6 49.8
6611 -10.5 -3.6 -9.8 -5.5
6612 -12.3 -8.4 -6.7 -10.2
6613 -11.3 -3.8 -5.4 -6.6
6614 -6.9 -3.6 -10.3 -8.4
6615 -5.5 -6.1 -9.7 -8.1
6616 -5.4 -4.6 -7.8 -5.5
6617 -8.3 -12.3 -5.5 -7.1
6618 27.5 42.4 53.9 52.2
6619 -5.1 -5.6 -7.3 -5.3
6620 -4.1 -4.6 -5.5 -4.9
6621 54.5 54.6 23.3 34.2
6622 -11.7 -4.8 -7.1 -8.6
6623 -8.4 -12.7 -6.9 -8.2
6624 31.6 21.8 47.5 32.6
6625 26.9 52.6 58.1 30.0
6626 -3.8 -3.3 -7.9 -3.4
6627 -8.9 -5.8 -10.2 -11.6
6628 31.1 23.9 24.1 47.1
6629 -6.6 -11.2 -11.4 -9.1
6630 0.0 0.0 0.0 0.0
6631 28.1 44.6 28.3 27.9
6632 58.1 42.4 58.8 46.4
6633 55.8 59.8 33.0 45.8
6634 46.4 43.3 59.0 57.5
6635 32.1 44.9 48.2 45.1
6636 -5.3 -11.6 -8.4 -10.7
6637 51.1 28.7 32.2 29.8
6638 46.0 51.6 49.0 56.4
6639 22.0 36.2 32.3 21.9
6640 45.2 41.0 59.5 37.1
6641 36.3 54.7 27.3 25.9
6642 -11.9 -7.5 -11.8 -7.8
6643 30.3 40.3 26.0 37.1
6644 53.6 48.6 27.5 39.2
6645 23.8 51.7 35.9 57.6
6646 21.3 58.1 24.6 37.9
6647 21.6 28.0 52.7 46.5
6648 24.4 49.7 39.6 56.6
6649 22.0 44.7 50.1 26.2
6650 -7.5 -9.4 -7.6 -4.1
6651 44.1 27.8 51.9 50.3
6652 37.2 44.2 36.0 50.5
6653 57.1 30.3 36.4 37.9
6654 -5.1 -12.1 -5.3 -11.4
6655 -10.4 -6.7 -3.5 -7.1
6656 -9.6 -7.1 -7.8 -8.2
6657 -10.0 -6.5 -12.4 -12.2
6658 -11.2 -7.9 -9.5 -9.1
6659 -11.5 -12.6 -11.5 -6.4
6660 -11.1 -12.2 -6.4 -5.7
6661 -4.0 -5.1 -4.6 -7.4
6662 -3.3 -8.6 -9.3 -11.0
6663 26.7 27.4 40.1 35.3
6664 -6.3 -12.3 -10.9 -4.7
6665 35.4 39.2 27.0 31.3
6666 54.0 32.9 39.3 28.2
6667 -8.5 -8.9 -3.7 -9.7
6668 44.4 47.9 20.3 54.2
6669 -4.8 -8.7 -10.2 -6.6
6670 -9.0 -8.1 -4.3 -9.7
6671 -8.2 -12.2 -8.1 -3.8
6672 25.9 54.2 25.8 28.1
6673 33.4 49.3 54.6 21.4
6674 -9.8 -5.3 -5.6 -5.7
6675 -6.9 -5.3 -9.6 -5.0
6676 58.3 46.4 25.1 49.2
6677 -6.1 -7.0 -12.6 -9.8
6678 -9.8 -7.8 -10.7 -12.3
6679 -7.2 -3.7 -11.5 -8.5
6680 -7.0 -9.0 -7.5 -7.4
6681 -12.8 -5.4 -4.4 -8.4
6682 43.1 37.7 57.8 24.8
6683 -6.9 -4.3 -10.3 -9.0
6684 -8.3 -11.0 -8.5 -6.5
6685 36.2 54.8 26.4 47.2
6686 -11.6 -3.8 -12.6 -6.8
6687 -8.8 -6.6 -8.2 -9.8
6688 -6.9 -5.3 -9.1 -6.5
6689 44.8 27.4 40.9 41.3
6690 -5.6 -11.9 -5.5 -11.4
6691 -10.2 -5.2 -10.2 -7.2
6692 45.4 44.2 34.9 32.6
6693 42.7 22.8 43.4 44.8
6694 -8.0 -9.9 -8.1 -10.7
6695 34.2 42.7 47.4 29.1
6696 52.2 26.8 28.0 21.4
6697 -3.5 -11.8 -10.6 -7.4
6698 -9.1 -7.7 -9.3 -4.6
6699 -9.7 -9.8 -4.4 -4.9
6700 -8.4 -4.0 -11.5 -11.6
6701 -3.3 -9.4 -7.0 -5.9
6702 -9.1 -5.8 -10.9 -3.3
6703 43.9 52.3 57.5 50.7
6704 -8.7 -11.5 -7.2 -8.4
6705 -10.7 -5.1 -12.7 -4.7
6706 -7.5 -6.9 -11.1 -11.5
6707 -11.0 -4.9 -10.6 -10.4
6708 54.4 23.6 20.7 27.3
6709 -9.4 -8.2 -6.9 -3.6
6710 -7.7 -11.3 -8.2 -3.4
6711 -7.0 -10.1 -10.7 -10.0
6712 21.1 58.0 46.9 38.8
6713 -6.9 -12.1 -3.8 -8.6
6714 -4.2 -6.1 -7.5 -10.0
6715 -12.2 -5.5 -9.1 -10.8
6716 46.9 25.3 59.3 35.7
6717 37.5 57.8 56.8 21.7
6718 -4.0 -6.6 -9.8 -12.3
6719 -8.1 -10.7 -7.8 -10.0
6720 -8.0 -12.6 -6.7 -10.4
6721 -10.6 -6.9 -8.9 -5.6
6722 -12.6 -9.7 -11.3 -10.1
6723 -3.7 -5.4 -5.8 -4.9
6724 -10.5 -11.0 -11.8 -8.3
6725 -8.6 -9.0 -8.6 -4.0
6726 26.5 56.0 44.6 59.1
6727 -3.6 -11.2 -8.2 -9.8
6728 -11.0 -9.8 -11.1 -8.0
6729 -6.6 -4.9 -9.1 -8.3
6730 58.9 38.9 28.8 20.1
6731 23.6 43.3 34.4 48.6
6732 54.7 25.6 30.1 43.5
6733 -9.7 -7.7 -3.9 -9.1
6734 -3.9 -5.3 -6.6 -7.8
6735 -6.8 -5.0 -11.7 -9.6
6736 -10.1 -7.9 -12.6 -8.0
6737 -9.4 -7.1 -12.2 -8.7
6738 -7.0 -10.8 -7.4 -4.6
6739 -11.0 -11.0 -9.7 -11.8
6740 44.6 28.5 55.0 44.2
6741 -5.8 -4.6 -7.8 -5.7
6742 -5.5 -12.4 -10.5 -5.2
6743 -7.2 -6.3 -3.8 -6.3
6744 0.0 0.0 0.0 0.0
6745 -8.4 -12.0 -7.4 -12.4
6746 -5.4 -8.5 -8.9 -8.8
6747 -6.7 -12.8 -8.4 -11.8
6748 24.3 29.9 59.2 44.6
6749 20.2 23.6 52.1 41.7
6750 -12.3 -4.1 -11.6 -11.4
6751 -3.3 -3.5 -12.4 -11.3
6752 -5.7 -3.8 -5.8 -11.4
6753 -12.7 -8.2 -12.1 -4.4
6754 -11.2 -12.7 -8.2 -7.7
6755 28.6 33.2 47.7 26.0
6756 -11.9 -3.9 -10.4 -12.0
6757 54.9 59.0 59.5 41.7
6758 -10.8 -10.0 -12.2 -4.7
6759 -4.8 -4.5 -8.3 -4.0
6760 -3.9 -7.1 -6.3 -6.6
6761 40.3 36.7 54.8 50.6
6762 -3.4 -12.8 -11.4 -7.0
6763 -7.9 -11.4 -12.8 -11.5
6764 -4.8 -10.8 -5.0 -5.8
6765 -9.4 -5.7 -8.3 -3.4
6766 -10.5 -7.8 -4.0 -11.1
6767 -5.9 -4.2 -7.7 -4.9
6768 -5.8 -12.6 -4.1 -10.8
6769 46.5 46.9 27.9 57.7
6770 -9.8 -5.8 -6.5 -10.0
6771 -6.2 -9.6 -8.7 -10.0
6772 -9.2 -4.2 -8.0 -8.8
6773 -8.6 -3.3 -5.3 -9.4
6774 -9.1 -11.4 -4.0 -5.6
6775 59.9 21.8 26.5 32.1
6776 -8.0 -9.1 -10.1 -4.7
6777 47.0 33.5 21.4 20.4
6778 -7.8 -6.6 -7.6 -4.0
6779 59.7 30.5 52.0 24.6
6780 -6.8 -10.4 -6.7 -8.2
6781 55.3 23.0 35.9 51.9
6782 45.6 54.7 26.3 58.6
6783 -6.2 -9.4 -9.1 -8.6
6784 -12.6 -9.1 -12.5 -12.5
6785 57.7 30.9 20.4 35.7
6786 -4.4 -10.2 -12.2 -11.0
6787 -10.8 -11.6 -10.6 -3.5
6788 -7.5 -5.8 -9.2 -10.5
6789 56.7 23.3 25.0 52.5
6790 -7.9 -3.3 -8.1 -7.9
6791 20.8 59.3 58.0 54.9
6792 -9.9 -6.2 -6.5 -6.2
6793 40.4 29.3 24.0 56.3
6794 25.6 57.3 44.9 41.9
6795 -10.1 -11.0 -5.2 -12.5
6796 53.4 51.7 50.2 39.6
6797 -9.4 -11.2 -12.3 -8.8
6798 -3.9 -11.1 -4.4 -5.0
6799 -11.1 -9.6 -6.5 -8.6
6800 -7.9 -8.2 -8.2 -11.5
6801 -12.1 -12.3 -4.0 -5.9
6802 -9.2 -7.3 -11.0 -9.4
6803 31.2 21.4 45.2 27.2
6804 37.7 34.5 45.6 28.7
6805 0.0 0.0 0.0 0.0
6806 -7.7 -6.3 -6.6 -6.2
6807 -7.3 -6.2 -4.5 -3.3
6808 -7.2 -8.0 -10.2 -12.1
6809 31.9 31.1 49.8 32.6
6810 47.1 36.9 21.1 38.7
6811 -8.1 -8.1 -11.9 -7.8
6812 -4.0 -8.7 -3.7 -7.0
6813 -6.8 -12.1 -6.0 -10.0
6814 52.0 26.7 22.8 23.7
6815 -3.6 -8.7 -4.1 -10.7
6816 45.1 25.4 48.6 42.2
6817 -4.4 -12.3 -7.3 -3.8
6818 -8.3 -11.3 -5.8 -8.4
6819 -11.7 -4.0 -4.4 -4.3
6820 24.4 22.9 23.5 51.0
6821 -9.6 -8.6 -6.3 -9.9
6822 47.1 21.2 54.2 42.1
6823 -11.8 -8.5 -3.9 -4.2
6824 49.1 38.4 59.8 32.4
6825 -6.3 -10.4 -12.6 -5.3
6826 -7.1 -5.8 -11.0 -7.2
6827 39.7 48.3 38.0 47.0
6828 -4.2 -12.4 -9.1 -10.8
6829 49.5 45.0 54.2 41.5
6830 40.0 26.6 53.1 47.9
6831 28.7 26.6 43.4 43.5
6832 -7.9 -5.1 -10.5 -3.2
6833 -6.4 -11.1 -11.1 -7.1
6834 56.3 50.9 36.8 23.8
6835 56.2 39.9 38.7 25.6
6836 -6.8 -3.7 -10.2 -12.7
6837 42.9 50.8 24.3 38.3
6838 22.4 33.4 29.7 41.8
6839 -8.1 -8.4 -10.1 -6.9
6840 -6.1 -10.6 -7.8 -7.2
6841 -5.7 -8.3 -4.4 -8.3
6842 -7.4 -3.5 -9.2 -7.4
6843 -6.1 -7.8 -3.6 -3.3
6844 -10.4 -6.6 -11.6 -3.3
6845 54.1 23.4 47.4 23.8
6846 -3.8 -6.3 -5.6 -6.4
6847 50.1 51.1 41.2 24.9
6848 -8.7 -10.4 -5.9 -3.8
6849 -5.2 -11.7 -9.7 -12.1
6850 -8.5 -4.7 -8.5 -12.7
6851 -4.3 -3.5 -7.6 -5.3
6852 38.7 30.2 59.5 44.8
6853 -8.7 -12.0 -11.8 -4.8
6854 49.1 26.8 38.0 41.1
6855 -6.0 -7.0 -4.1 -8.5
6856 29.7 57.9 21.0 38.8
6857 -7.2 -12.6 -4.2 -8.7
6858 26.5 22.7 48.7 44.4
6859 -3.9 -11.0 -11.3 -12.0
6860 -9.4 -6.9 -6.4 -3.2
6861 -8.1 -9.6 -4.7 -4.9
6862 -10.2 -11.6 -5.8 -6.9
6863 32.2 57.2 52.7 40.4
6864 -9.6 -3.5 -12.1 -6.7
6865 -10.4 -9.6 -8.1 -5.1
6866 -6.9 -8.5 -10.6 -11.2
6867 28.3 24.0 35.5 30.3
6868 -7.6 -9.7 -12.2 -3.3
6869 -7.8 -7.8 -4.3 -10.8
6870 -11.6 -8.7 -5.6 -6.3
6871 54.7 59.6 43.2 42.9
6872 21.0 53.6 47.3 25.0
6873 -9.1 -6.5 -4.8 -4.7
6874 22.5 28.4 37.5 34.8
6875 -12.9 -3.9 -12.0 -7.4
6876 21.2 39.7 58.7 31.9
6877 -6.3 -9.7 -5.7 -4.0
6878 45.4 44.0 31.3 24.7
6879 58.8 46.2 41.2 58.7
6880 -4.7 -5.4 -7.1 -9.3
6881 38.8 22.9 28.3 33.4
6882 52.5 50.3 37.2 31.4
6883 30.4 43.2 35.5 32.7
6884 29.3 25.7 31.7 52.4
6885 -5.5 -8.8 -11.3 -11.7
6886 33.3 39.7 21.7 20.3
6887 -9.6 -6.4 -3.3 -4.4
6888 43.3 56.7 59.6 58.2
6889 -7.2 -3.2 -6.2 -6.4
6890 -7.1 -5.5 -10.3 -5.2
6891 -10.5 -10.0 -10.9 -6.8
6892 25.3 23.6 32.1 44.8
6893 -9.0 -8.8 -6.2 -6.4
6894 51.1 29.9 36.4 54.0
6895 -9.5 -4.3 -4.4 -4.3
6896 -8.6 -3.3 -11.8 -7.4
6897 -5.4 -7.3 -6.3 -10.8
6898 48.1 53.3 39.7 38.1
6899 -7.7 -8.3 -3.9 -9.4
6900 22.1 22.7 51.6 43.1
6901 -8.0 -12.4 -7.1 -5.3
6902 -6.0 -12.8 -10.4 -12.0
6903 42.3 54.0 41.3 43.9
6904 -8.0 -5.7 -4.3 -10.1
6905 -4.1 -4.6 -3.9 -4.4
6906 49.3 25.8 51.4 28.4
6907 41.9 35.9 34.6 33.7
6908 -12.3 -12.3 -3.4 -6.1
6909 56.4 38.8 42.9 56.7
6910 39.6 56.8 51.9 41.4
6911 24.9 24.3 52.7 21.1
6912 -11.9 -9.1 -7.6 -10.7
6913 -10.2 -8.7 -5.2 -4.5
6914 -3.8 -3.6 -10.8 -11.3
6915 -11.6 -10.2 -4.7 -7.8
6916 -12.0 -6.2 -9.5 -9.5
6917 -7.8 -6.0 -4.9 -11.6
6918 53.0 32.6 27.6 29.1
6919 27.7 42.5 37.4 27.9
6920 32.7 37.5 22.1 55.8
6921 25.0 48.5 45.5 40.2
6922 -3.8 -9.9 -11.9 -7.5
6923 44.5 24.5 51.0 26.8
6924 -5.0 -6.0 -6.6 -7.9
6925 -5.2 -10.0 -5.3 -4.2
6926 -7.7 -5.7 -4.9 -7.7
6927 -11.1 -10.2 -11.8 -7.1
6928 -8.8 -10.1 -8.8 -5.5
6929 -6.0 -6.8 -5.4 -9.7
6930 -12.6 -12.3 -9.0 -12.6
6931 -5.5 -8.6 -12.6 -11.7
6932 -4.0 -5.0 -6.8 -12.6
6933 -9.6 -10.0 -11.0 -3.5
6934 -5.8 -3.3 -7.1 -8.9
6935 -8.1 -9.1 -12.2 -5.9
6936 -4.0 -3.5 -11.3 -5.2
6937 -4.7 -3.2 -5.2 -8.3
6938 -11.4 -6.0 -9.2 -5.3
6939 -10.5 -10.3 -12.1 -6.7
6940 -10.7 -6.3 -8.1 -6.4
6941 45.1 52.0 37.1 54.8
6942 -4.7 -9.1 -10.0 -4.8
6943 -10.2 -3.6 -5.7 -5.7
6944 -9.4 -3.9 -3.9 -11.4
6945 47.9 26.9 38.2 51.8
6946 50.1 27.5 29.1 22.0
6947 -5.8 -3.4 -4.0 -6.5
6948 0.0 0.0 0.0 0.0
6949 -4.1 -9.0 -10.9 -10.1
6950 -8.3 -4.8 -5.4 -11.2
6951 27.7 31.9 29.2 28.5
6952 -4.0 -9.3 -12.7 -9.4
6953 -7.3 -9.6 -4.3 -10.9
6954 -9.3 -4.8 -9.4 -4.0
6955 -8.2 -10.3 -4.4 -6.9
6956 -11.7 -6.4 -10.5 -7.2
6957 38.5 40.0 30.8 50.4
6958 52.8 25.3 55.5 44.7
6959 -6.2 -4.7 -12.6 -4.7
6960 -11.5 -10.5 -12.5 -10.3
6961 -9.7 -8.5 -12.8 -7.8
6962 47.0 32.3 43.0 33.8
6963 -9.3 -8.9 -8.9 -10.1
6964 -6.0 -6.9 -12.3 -11.1
6965 -8.4 -12.4 -12.1 -10.1
6966 -9.7 -7.2 -12.2 -4.8
6967 58.9 43.6 25.6 30.8
6968 -5.0 -10.3 -12.7 -12.7
6969 30.5 21.8 36.4 28.3
6970 39.0 38.6 37.3 27.4
6971 28.9 53.9 21.5 54.1
6972 -4.5 -6.8 -8.7 -11.0
6973 33.9 32.9 32.1 48.1
6974 -4.6 -5.1 -11.8 -5.1
6975 -8.2 -8.8 -7.1 -5.5
6976 -10.5 -12.2 -10.0 -8.8
6977 -9.5 -9.4 -8.0 -5.9
6978 -6.8 -12.4 -7.4 -6.2
6979 -10.3 -4.7 -10.2 -4.3
6980 -10.6 -12.1 -7.3 -6.1
6981 -12.5 -9.2 -5.5 -8.3
6982 43.2 51.2 50.5 24.4
6983 -6.8 -3.9 -10.7 -12.4
6984 -11.0 -12.7 -11.0 -12.3
6985 32.0 55.3 37.5 49.7
6986 46.0 49.0 38.8 52.9
6987 51.9 23.6 39.3 53.9
6988 43.3 30.2 26.8 43.0
6989 -10.7 -6.5 -3.4 -11.7
6990 -5.9 -9.8 -9.1 -3.3
6991 -12.8 -4.6 -12.3 -8.0
6992 -5.2 -10.4 -12.3 -5.4
6993 27.5 26.7 24.6 21.1
6994 -4.3 -8.0 -8.2 -4.6
6995 -10.4 -10.1 -6.6 -11.9
6996 -6.8 -11.7 -8.9 -4.5
6997 -5.8 -9.4 -5.2 -4.9
6998 48.1 58.7 56.0 32.9
6999 39.6 34.9 23.7 51.2
7000 39.1 36.8 57.7 38.6
7001 -11.2 -7.2 -4.5 -8.2
7002 -5.2 -12.7 -6.1 -7.1
7003 24.7 37.1 58.0 43.5
7004 56.0 53.6 33.5 35.5
7005 -5.0 -8.8 -7.5 -6.9
7006 -11.7 -8.6 -10.9 -8.9
7007 -7.4 -3.6 -10.5 -7.6
7008 24.8 59.4 28.1 36.5
7009 -5.4 -5.7 -10.4 -11.7
7010 -3.9 -6.0 -5.1 -7.3
7011 -9.3 -8.0 -5.0 -5.0
7012 53.0 33.1 35.9 32.7
7013 22.0 46.5 41.0 25.6
7014 33.0 41.8 30.2 52.1
7015 32.8 39.9 35.9 54.5
7016 -6.2 -12.1 -3.2 -9.1
7017 48.3 43.1 23.2 54.0
7018 -8.4 -12.5 -12.5 -6.1
7019 -5.9 -4.2 -11.9 -7.0
7020 -11.3 -3.9 -12.5 -5.6
7021 -5.3 -12.3 -4.3 -4.7
7022 46.0 39.9 49.6 30.2
7023 -6.6 -9.5 -6.5 -5.6
7024 39.9 57.7 23.4 21.4
7025 -12.0 -9.0 -10.6 -8.2
7026 49.3 54.9 21.8 47.9
7027 -8.0 -7.3 -8.3 -7.1
7028 -12.6 -11.6 -4.6 -11.4
7029 -10.8 -9.5 -4.1 -9.0
7030 -6.1 -6.0 -10.5 -11.3
7031 46.1 48.8 49.1 59.5
7032 26.6 57.1 55.7 55.7
7033 25.8 47.2 44.9 28.1
7034 50.6 33.4 38.8 32.9
7035 56.8 54.2 31.3 23.7
7036 -7.7 -7.0 -10.9 -12.2
7037 51.5 33.1 27.2 30.3
7038 -11.3 -11.1 -9.4 -6.3
7039 -7.8 -9.8 -4.0 -6.5
7040 -6.1 -8.1 -5.6 -10.1
7041 46.6 54.7 23.0 37.7
7042 -4.3 -10.3 -8.8 -11.9
7043 -7.6 -11.5 -7.0 -3.5
7044 46.8 31.9 33.9 33.7
7045 58.3 29.1 37.5 30.4
7046 -7.3 -6.7 -7.8 -8.6
7047 -11.5 -5.6 -5.5 -11.3
7048 53.1 51.8 55.6 34.3
7049 -12.4 -12.7 -3.6 -5.5
7050 -10.4 -4.1 -7.9 -10.2
7051 35.4 45.4 52.9 39.4
7052 20.1 22.0 36.5 45.1
7053 45.1 48.6 45.0 23.7
7054 30.1 57.9 24.2 29.2
7055 -10.5 -10.4 -8.1 -5.2
7056 49.7 54.6 22.3 47.9
7057 -12.8 -10.1 -9.7 -11.2
7058 -9.6 -4.0 -6.0 -8.5
7059 -11.5 -10.3 -3.5 -11.5
7060 -6.4 -10.6 -4.7 -11.4
7061 -9.0 -5.7 -5.3 -4.7
7062 -11.9 -5.8 -9.8 -7.9
7063 24.6 29.4 22.6 30.7
7064 -10.6 -7.1 -3.2 -10.9
7065 -5.3 -10.1 -10.2 -9.9
7066 44.7 42.0 54.3 55.4
7067 -8.0 -9.8 -12.8 -8.5
7068 -11.5 -8.3 -4.3 -6.3
7069 -11.5 -11.2 -11.6 -4.8
7070 -7.6 -7.9 -8.3 -3.4
7071 -8.7 -4.2 -8.0 -7.9
7072 -8.5 -6.4 -10.3 -9.8
7073 -12.4 -4.3 -4.1 -8.5
7074 33.6 38.7 31.2 39.4
7075 -9.7 -7.4 -10.3 -8.5
7076 -12.6 -7.5 -7.0 -5.9
7077 54.9 50.5 48.6 54.2
7078 37.8 26.3 59.1 32.5
7079 38.9 39.7 52.2 40.2
7080 0.0 0.0 0.0 0.0
7081 -12.8 -3.8 -4.2 -7.8
7082 -7.9 -11.2 -6.1 -11.9
7083 -10.2 -3.9 -4.2 -4.6
7084 -11.3 -5.8 -11.7 -10.2
7085 29.2 35.0 23.6 25.1
7086 50.0 52.0 23.1 32.1
7087 -11.1 -8.5 -10.1 -11.5
7088 41.3 30.3 51.5 43.4
7089 -12.4 -12.8 -8.4 -4.9
7090 29.7 29.3 24.9 50.8
7091 -3.9 -10.6 -5.9 -11.8
7092 -12.1 -10.5 -5.1 -9.1
7093 -5.2 -10.1 -3.4 -10.2
7094 -11.0 -6.2 -6.6 -5.1
7095 -8.9 -5.9 -7.9 -12.1
7096 53.6 57.4 49.1 21.3
7097 -11.0 -10.0 -9.7 -9.3
7098 -12.5 -12.6 -6.3 -10.5
7099 20.8 35.7 56.7 30.9
7100 -10.2 -8.5 -7.0 -6.3
7101 39.0 50.3 34.9 55.8
7102 -9.6 -10.9 -4.6 -9.5
7103 34.5 59.4 44.1 26.0
7104 32.8 34.8 25.0 31.8
7105 -8.4 -3.8 -11.3 -5.3
7106 33.1 48.4 27.7 32.7
7107 -9.9 -6.8 -4.3 -3.8
7108 -7.4 -7.0 -12.1 -4.1
7109 -3.9 -5.8 -12.5 -8.1
7110 -9.6 -12.7 -9.3 -8.7
7111 49.8 34.2 24.6 52.1
7112 49.1 23.3 37.2 59.8
7113 -5.0 -3.9 -8.9 -11.9
7114 -5.7 -7.0 -9.5 -10.1
7115 29.1 34.9 41.2 37.9
7116 47.2 28.5 25.2 57.0
7117 -5.2 -8.3 -4.8 -8.6
7118 -11.6 -8.0 -8.4 -7.9
7119 -8.2 -8.8 -7.5 -9.5
7120 33.2 59.3 48.0 39.1
7121 -4.8 -12.5 -4.5 -4.8
7122 22.8 34.6 37.2 53.3
7123 32.7 54.9 52.1 48.3
7124 -9.1 -4.6 -10.5 -3.8
7125 -8.3 -7.5 -12.6 -7.7
7126 -6.9 -7.1 -3.5 -10.2
7127 -7.5 -3.6 -11.5 -4.7
7128 39.1 34.0 34.4 31.2
7129 -5.4 -9.9 -6.4 -8.1
7130 -9.5 -5.8 -7.8 -6.3
7131 -12.2 -6.1 -11.9 -11.9
7132 55.9 33.4 41.5 58.6
7133 26.7 50.4 59.6 58.4
7134 47.5 27.8 31.5 38.4
7135 45.3 23.9 57.2 33.8
7136 27.2 48.1 21.0 32.1
7137 47.8 23.3 40.3 45.1
7138 39.7 45.8 42.3 40.5
7139 27.7 31.3 51.0 45.3
7140 39.5 22.6 52.8 25.7
7141 -8.1 -8.1 -5.8 -8.5
7142 -8.1 -5.0 -11.7 -11.6
7143 26.9 46.2 28.6 41.0
7144 -7.8 -5.7 -10.4 -10.9
7145 31.6 54.8 25.0 55.5
7146 -9.1 -11.0 -6.5 -7.7
7147 27.9 24.4 28.8 51.8
7148 28.3 35.0 51.4 34.4
7149 47.2 45.7 43.8 58.7
7150 44.6 23.6 45.8 29.2
7151 20.2 43.8 59.7 42.8
7152 -8.0 -8.7 -5.8 -3.3
7153 -4.1 -6.2 -5.9 -11.0
7154 36.6 47.6 51.9 29.3
7155 -6.7 -10.2 -5.9 -9.3
7156 -5.5 -7.9 -9.0 -7.3
7157 40.1 41.6 24.7 49.2
7158 -10.3 -11.0 -12.8 -5.1
7159 -6.4 -8.5 -11.0 -3.7
7160 -6.2 -10.2 -10.6 -3.9
7161 -5.8 -11.0 -10.7 -5.5
7162 -7.1 -9.0 -5.7 -11.9
7163 43.2 21.5 25.7 43.5
7164 -4.3 -8.2 -9.0 -4.5
7165 20.6 30.2 25.6 26.2
7166 23.6 33.2 54.5 55.3
7167 42.9 28.2 35.4 26.1
7168 29.9 45.5 26.9 38.2
7169 -6.2 -11.4 -6.0 -6.9
7170 -7.9 -9.8 -3.7 -8.2
7171 -9.1 -12.5 -10.8 -6.9
7172 -6.0 -8.3 -4.3 -3.5
7173 43.7 54.3 42.6 56.7
7174 -4.1 -9.2 -11.8 -11.1
7175 -8.6 -11.3 -3.3 -9.7
7176 -11.0 -7.3 -7.7 -11.6
7177 56.4 37.8 29.6 42.9
7178 -7.8 -12.4 -4.1 -7.0
7179 46.0 55.0 24.2 48.4
7180 47.0 47.0 56.2 58.6
7181 53.2 24.1 24.6 33.8
7182 -9.4 -5.3 -10.5 -3.2
7183 -7.6 -6.3 -8.7 -11.8
7184 29.0 21.6 25.8 50.0
7185 -12.6 -5.1 -11.4 -8.5
7186 -11.7 -4.7 -8.1 -11.1
7187 28.4 29.8 45.4 42.9
7188 45.8 24.1 58.4 51.2
7189 -8.1 -7.8 -7.2 -8.9
7190 54.1 40.5 56.3 44.8
7191 -4.1 -8.2 -10.5 -7.5
7192 33.3 33.6 25.3 21.3
7193 -8.0 -12.7 -12.4 -7.5
7194 -3.6 -11.7 -10.6 -12.0
7195 -8.2 -7.0 -3.8 -6.4
7196 -11.8 -6.6 -5.1 -12.0
7197 44.3 55.9 52.7 21.4
7198 -6.3 -5.6 -4.0 -9.0
7199 -6.9 -9.2 -3.9 -5.0
7200 -6.0 -10.3 -8.9 -8.5
7201 -8.6 -7.8 -5.0 -7.8
7202 28.9 48.5 44.5 31.7
7203 -10.5 -5.1 -6.7 -6.8
7204 38.6 37.7 47.6 59.7
7205 -12.1 -4.2 -3.5 -7.6
7206 -10.3 -9.9 -7.8 -8.7
7207 -10.5 -4.6 -9.3 -6.6
7208 -4.4 -9.0 -10.2 -9.8
7209 -6.6 -4.9 -3.7 -10.6
7210 37.4 39.0 29.1 24.4
7211 -9.1 -10.7 -11.9 -8.3
7212 -11.2 -8.2 -7.9 -6.9
7213 -4.3 -8.5 -11.9 -8.0
7214 -8.2 -12.1 -9.7 -9.7
7215 -5.0 -11.9 -3.3 -8.5
7216 -10.9 -4.7 -12.2 -11.3
7217 -9.3 -8.2 -11.0 -9.3
7218 -3.8 -6.3 -5.6 -11.3
7219 -5.3 -10.5 -10.8 -8.7
7220 59.6 45.6 56.2 29.4
7221 48.1 27.2 50.0 59.7
7222 23.5 39.4 28.6 41.5
7223 53.8 49.1 47.3 36.4
7224 57.7 46.7 32.1 26.9
7225 -6.9 -8.3 -4.6 -7.6
7226 -4.0 -10.7 -8.9 -4.2
7227 -8.1 -7.6 -12.0 -11.7
7228 33.7 59.8 46.6 47.6
7229 21.5 44.4 29.5 29.3
7230 -3.5 -4.0 -11.1 -6.6
7231 37.3 36.8 33.6 36.4
7232 53.3 39.2 36.3 48.2
7233 43.1 47.7 31.4 34.8
7234 -4.4 -7.9 -5.8 -7.7
7235 -12.6 -10.9 -10.1 -6.9
7236 46.9 54.8 28.0 50.4
7237 24.6 54.3 35.7 51.8
7238 33.9 29.3 38.9 35.3
7239 53.3 24.8 46.1 43.9
7240 -5.9 -7.3 -5.2 -3.6
7241 -8.3 -3.9 -12.0 -10.7
7242 -8.0 -3.3 -6.9 -6.5
7243 53.9 39.9 59.3 25.5
7244 52.5 38.7 44.9 45.1
7245 -12.4 -5.2 -9.1 -11.1
7246 22.1 21.8 27.5 21.3
7247 27.2 42.7 22.1 49.9
7248 -10.7 -9.0 -5.7 -5.0
7249 -7.3 -6.7 -7.4 -6.0
7250 47.5 20.0 48.6 39.3
7251 -12.5 -9.2 -11.9 -6.8
7252 -6.3 -12.5 -8.5 -11.8
7253 36.8 27.4 42.8 26.1
7254 27.4 20.4 35.9 47.6
7255 -10.6 -5.4 -9.7 -8.1
7256 58.8 57.4 32.2 24.6
7257 49.4 42.3 32.8 43.5
7258 -7.7 -3.3 -4.8 -3.6
7259 -7.2 -5.2 -5.0 -5.2
7260 -12.6 -7.8 -3.3 -12.1
7261 -11.6 -11.4 -6.9 -3.6
7262 42.6 51.1 30.7 59.5
7263 53.1 27.8 35.7 47.0
7264 51.9 45.0 45.1 22.2
7265 -4.2 -4.3 -10.5 -8.7
7266 -7.8 -7.9 -9.6 -8.6
7267 -10.5 -4.1 -10.9 -3.2
7268 -12.4 -3.4 -7.1 -8.6
7269 -11.3 -3.3 -12.5 -10.4
7270 50.6 23.0 41.7 48.0
7271 24.1 23.8 34.3 21.2
7272 -9.9 -10.3 -5.9 -12.4
7273 -9.7 -12.7 -6.9 -8.7
7274 -8.2 -4.8 -7.8 -11.9
7275 -12.9 -11.4 -9.5 -8.0
7276 -6.8 -9.4 -10.6 -9.7
7277 0.0 0.0 0.0 0.0
7278 21.1 57.1 50.5 52.8
7279 -11.7 -5.2 -11.1 -4.0
7280 21.4 52.2 55.9 20.4
7281 -8.0 -12.5 -8.8 -11.3
7282 -5.0 -11.9 -4.8 -10.0
7283 -5.4 -10.5 -11.2 -7.2
7284 -6.0 -8.2 -11.0 -8.2
7285 -9.7 -12.4 -11.0 -5.3
7286 -6.6 -4.7 -11.3 -5.2
7287 -10.2 -5.3 -7.3 -12.6
7288 41.2 45.0 30.4 31.1
7289 -3.8 -9.9 -4.7 -7.8
7290 -8.3 -4.9 -10.9 -12.1
7291 -6.9 -9.8 -6.1 -7.3
7292 51.6 27.6 48.9 38.4
7293 31.7 24.3 31.9 58.7
7294 59.5 20.1 23.0 20.8
7295 23.7 24.4 21.8 25.2
7296 28.3 41.3 56.3 55.8
7297 42.2 30.9 23.9 54.4
7298 36.6 56.6 53.3 53.8
7299 -9.5 -11.5 -5.0 -3.5
7300 -12.0 -11.9 -10.1 -12.7
7301 48.1 34.8 30.3 48.1
7302 54.9 55.9 40.8 58.0
7303 -4.6 -8.1 -4.8 -5.2
7304 -3.7 -4.9 -7.7 -4.7
7305 -5.6 -7.0 -6.5 -6.9
7306 -11.0 -7.4 -12.4 -9.9
7307 -8.0 -6.6 -7.4 -11.4
7308 -11.2 -3.7 -5.5 -10.6
7309 -9.9 -4.2 -4.4 -5.6
7310 31.7 22.0 38.5 37.9
7311 -4.3 -6.4 -8.6 -9.8
7312 -4.7 -3.9 -11.0 -4.9
7313 -8.5 -11.3 -8.1 -11.8
7314 -5.9 -9.4 -11.2 -6.2
7315 53.7 34.1 49.5 29.5
7316 36.2 38.8 22.9 52.3
7317 48.7 33.8 46.5 33.1
7318 22.7 31.7 26.0 39.6
7319 -11.2 -6.7 -7.7 -11.3
7320 40.6 44.7 50.9 36.4
7321 24.2 20.1 30.5 43.1
7322 52.9 46.3 41.3 43.1
7323 36.7 40.0 46.0 26.7
7324 -11.2 -11.4 -5.1 -12.7
7325 -7.7 -3.4 -4.2 -6.5
7326 27.1 20.6 52.3 47.5
7327 -3.5 -6.8 -8.1 -10.4
7328 -10.0 -11.6 -3.7 -5.4
7329 -4.8 -4.3 -5.8 -4.1
7330 -11.9 -9.9 -10.6 -10.0
7331 44.5 43.8 57.9 20.8
7332 -9.6 -8.8 -4.1 -6.5
7333 -9.7 -3.9 -8.8 -8.7
7334 27.1 35.6 58.3 48.1
7335 -8.2 -10.3 -6.5 -4.7
7336 38.0 58.5 24.6 33.5
7337 29.6 45.9 24.8 41.2
7338 45.8 50.6 27.1 45.8
7339 26.8 46.0 43.2 39.8
7340 -6.8 -8.6 -5.9 -7.8
7341 -10.0 -5.2 -12.3 -4.1
7342 -11.7 -10.7 -12.2 -10.0
7343 40.9 45.8 49.9 57.7
7344 -5.5 -6.4 -4.1 -3.8
7345 -5.7 -6.3 -8.1 -8.4
7346 34.3 32.5 28.2 53.2
7347 -9.5 -12.0 -8.5 -9.5
7348 -8.8 -10.5 -12.4 -3.4
7349 -10.6 -8.1 -6.1 -8.2
7350 -7.5 -11.7 -11.2 -8.3
7351 -9.5 -10.4 -3.8 -6.2
7352 30.8 44.2 55.5 36.9
7353 -7.3 -6.5 -3.2 -7.0
7354 23.8 23.6 28.5 34.1
7355 50.7 33.0 45.7 55.1
7356 -3.6 -7.1 -8.5 -10.1
7357 35.8 22.5 31.8 26.1
7358 -11.6 -10.3 -11.5 -11.3
7359 44.7 38.4 38.3 21.6
7360 20.3 49.2 23.5 58.7
7361 41.2 47.0 28.4 54.0
7362 -5.8 -4.6 -7.2 -8.8
7363 33.2 32.7 40.6 54.2
7364 -8.0 -5.5 -8.5 -12.6
7365 -10.2 -10.4 -10.1 -4.1
7366 34.5 49.7 58.7 36.8
7367 36.8 50.9 23.8 54.1
7368 48.7 56.1 49.7 25.4
7369 41.9 21.4 34.2 37.5
7370 -6.7 -9.9 -7.5 -5.1
7371 37.5 42.8 27.9 23.0
7372 24.2 51.5 31.4 42.2
7373 21.7 58.8 34.0 24.4
7374 50.5 35.4 36.6 53.7
7375 47.4 56.5 51.5 51.7
7376 -4.0 -4.5 -12.2 -7.1
7377 28.7 33.7 47.3 36.7
7378 -8.0 -9.6 -11.7 -5.1
7379 -4.2 -12.1 -7.8 -6.3
7380 -6.8 -3.3 -8.7 -12.4
7381 27.4 48.0 51.6 22.3
7382 -8.0 -12.4 -6.5 -3.3
7383 37.7 34.7 31.6 35.2
7384 -9.0 -8.4 -4.1 -7.5
7385 -10.4 -3.3 -7.9 -5.0
7386 55.8 51.0 31.5 40.8
7387 55.2 51.0 53.8 30.6
7388 -3.8 -3.6 -8.7 -12.0
7389 32.7 52.6 35.9 32.5
7390 -8.1 -5.3 -10.4 -11.4
7391 56.9 34.4 59.8 34.4
7392 46.3 58.8 59.1 56.1
7393 48.9 54.6 45.7 40.4
7394 -5.0 -4.3 -12.0 -3.5
7395 -11.2 -8.0 -8.1 -12.7
7396 54.9 26.9 39.1 20.5
7397 40.1 47.9 28.6 44.2
7398 -12.9 -6.3 -4.3 -5.7
7399 -3.3 -8.9 -8.2 -3.4
7400 43.8 42.0 46.8 38.9
7401 29.7 34.0 20.5 41.6
7402 -9.2 -5.6 -10.5 -11.0
7403 -11.6 -3.5 -9.8 -12.4
7404 -9.2 -10.7 -9.3 -4.2
7405 31.7 46.3 34.8 48.2
7406 -9.1 -7.3 -4.6 -9.0
7407 -9.8 -12.3 -3.4 -9.8
7408 0.0 0.0 0.0 0.0
7409 -6.2 -7.2 -11.9 -3.5
7410 47.3 32.4 21.1 32.3
7411 -6.4 -3.6 -11.7 -8.5
7412 -6.7 -5.9 -4.1 -4.0
7413 60.0 50.1 54.9 24.5
7414 -5.3 -7.6 -10.4 -9.4
7415 -6.8 -9.4 -4.7 -8.7
7416 -8.6 -8.3 -8.3 -10.8
7417 52.3 46.3 38.8 49.8
7418 -5.9 -11.1 -12.8 -5.8
7419 33.6 23.8 21.0 25.6
7420 51.0 20.0 22.2 42.1
7421 57.9 49.7 49.9 28.1
7422 -8.3 -6.0 -5.3 -12.2
7423 33.8 35.8 41.8 59.6
7424 -4.9 -12.3 -6.9 -4.0
7425 32.1 20.9 59.7 55.7
7426 -8.5 -5.2 -8.0 -6.6
7427 -5.0 -11.1 -9.0 -11.3
7428 51.6 42.6 48.6 52.7
7429 -5.5 -8.4 -9.1 -7.7
7430 -7.7 -3.9 -3.8 -11.1
7431 -3.9 -11.4 -12.5 -3.4
7432 -3.9 -7.3 -8.0 -8.9
7433 20.1 34.5 36.6 26.7
7434 52.9 35.5 59.3 57.7
7435 -4.6 -10.3 -6.0 -8.2
7436 22.2 50.9 45.0 41.8
7437 26.9 26.0 47.4 49.7
7438 -5.3 -3.4 -4.1 -11.6
7439 32.1 32.6 21.0 54.0
7440 -4.6 -11.6 -11.2 -10.3
7441 -8.4 -4.1 -11.7 -3.2
7442 23.3 50.5 44.0 29.9
7443 -7.0 -7.2 -9.7 -8.8
7444 -12.1 -9.7 -6.3 -6.4
7445 52.4 36.7 24.1 22.3
7446 -9.9 -7.9 -8.2 -9.3
7447 -4.4 -10.4 -7.6 -7.8
7448 30.9 32.5 54.5 59.1
7449 -3.9 -12.0 -10.6 -9.8
7450 -11.3 -3.3 -4.9 -6.3
7451 -3.6 -11.5 -10.6 -7.6
7452 -10.2 -5.9 -7.0 -11.5
7453 -8.8 -7.1 -8.0 -10.1
7454 31.9 54.6 52.5 21.4
7455 -3.7 -10.7 -3.6 -3.8
7456 45.8 35.8 40.8 31.6
7457 -7.0 -9.5 -5.6 -3.9
7458 30.4 22.4 58.8 28.6
7459 -12.9 -11.5 -4.9 -8.5
7460 -5.9 -6.8 -9.7 -6.7
7461 -8.0 -10.4 -4.0 -6.8
7462 53.9 41.3 22.3 44.5
7463 -11.5 -10.7 -10.0 -8.8
7464 -9.5 -8.6 -11.7 -8.1
7465 -9.0 -3.7 -12.7 -8.7
7466 -5.8 -6.0 -4.1 -9.4
7467 -10.3 -4.6 -8.7 -5.4
7468 -7.7 -12.4 -10.8 -10.0
7469 -12.1 -9.5 -4.6 -3.7
7470 -10.7 -8.5 -6.3 -12.4
7471 30.1 47.8 50.9 30.0
7472 -3.3 -12.1 -11.2 -11.9
7473 42.4 53.5 34.4 26.6
7474 -9.3 -11.4 -10.7 -4.0
7475 -7.7 -4.0 -8.8 -7.5
7476 42.3 21.1 33.0 52.7
7477 -5.7 -6.8 -11.3 -3.3
7478 -7.6 -5.3 -7.8 -12.3
7479 55.7 44.5 23.3 30.4
7480 -4.1 -9.5 -8.8 -10.8
7481 -10.7 -4.5 -7.6 -7.2
7482 -11.9 -12.3 -11.2 -11.8
7483 -3.6 -6.5 -8.7 -10.3
7484 38.4 20.8 31.2 56.1
7485 -4.3 -8.0 -3.4 -6.6
7486 -5.4 -12.6 -11.6 -5.5
7487 29.9 51.0 34.2 58.1
7488 -11.9 -9.8 -8.7 -11.7
7489 -12.8 -7.5 -6.6 -9.5
7490 -11.5 -6.2 -10.3 -4.5
7491 34.5 41.7 21.4 49.7
7492 56.2 50.3 41.2 37.6
7493 -9.6 -6.2 -3.4 -12.7
7494 33.7 41.9 33.2 42.4
7495 52.1 42.5 39.3 57.4
7496 59.1 34.3 38.0 41.8
7497 -4.7 -12.4 -8.5 -9.8
7498 51.8 26.2 42.6 57.4
7499 -8.2 -7.1 -6.9 -4.3
7500 59.4 29.6 25.8 40.0
7501 43.4 27.0 58.1 58.2
7502 -10.4 -9.4 -5.5 -8.2
7503 -3.5 -7.0 -12.1 -4.7
7504 -7.1 -4.4 -4.7 -8.2
7505 -5.9 -9.6 -4.5 -12.3
7506 -9.2 -3.5 -6.3 -9.2
7507 -4.0 -8.1 -10.9 -10.8
7508 -10.8 -6.5 -8.0 -9.6
7509 33.2 26.1 33.9 54.9
7510 -8.1 -12.6 -4.9 -6.3
7511 -10.4 -12.5 -10.8 -7.1
7512 41.7 53.8 56.0 20.4
7513 -12.1 -10.4 -10.1 -7.0
7514 -12.3 -9.7 -7.5 -6.6
7515 -9.7 -9.5 -10.2 -9.6
7516 -12.5 -5.2 -4.1 -10.4
7517 -10.2 -10.2 -7.3 -6.1
7518 -8.7 -12.2 -10.5 -9.2
7519 -3.5 -4.1 -8.8 -10.3
7520 35.8 54.7 35.5 58.5
7521 58.3 37.6 28.8 28.9
7522 -10.5 -10.3 -8.0 -11.4
7523 -6.9 -8.4 -5.4 -9.5
7524 -4.5 -9.5 -6.4 -5.4
7525 22.4 45.3 39.8 28.1
7526 49.3 27.7 34.9 44.4
7527 45.9 29.7 48.3 45.0
7528 49.2 36.0 48.9 34.2
7529 -3.3 -9.9 -11.2 -6.4
7530 -3.4 -10.5 -7.8 -10.8
7531 -6.5 -4.1 -11.1 -6.4
7532 -8.9 -5.1 -8.9 -10.4
7533 -10.7 -10.2 -12.0 -6.8
7534 33.2 59.9 33.0 46.5
7535 48.1 43.6 44.8 45.4
7536 54.9 39.8 51.3 37.5
7537 -8.0 -7.0 -4.8 -9.2
7538 -7.4 -9.1 -12.7 -10.4
7539 56.5 24.0 31.8 45.2
7540 26.8 58.5 42.4 30.9
7541 47.3 24.8 26.8 41.0
7542 -3.4 -4.9 -5.0 -9.0
7543 50.0 23.5 49.0 34.8
7544 0.0 0.0 0.0 0.0
7545 43.9 29.3 39.9 53.4
7546 -8.5 -5.9 -11.1 -7.3
7547 34.6 55.1 47.8 48.8
7548 43.2 39.1 50.2 23.3
7549 43.7 32.5 50.8 30.4
7550 45.1 27.7 35.4 25.7
7551 -7.3 -9.9 -12.3 -8.6
7552 27.9 59.5 59.5 51.3
7553 -8.2 -8.7 -6.5 -7.7
7554 48.7 39.7 27.9 54.2
7555 -6.0 -6.5 -7.1 -5.9
7556 -6.0 -4.4 -5.6 -3.4
7557 -9.2 -12.6 -11.4 -11.8
7558 -6.7 -8.1 -10.3 -11.0
7559 23.9 34.7 42.9 57.4
7560 38.2 20.4 53.1 20.4
7561 -5.2 -11.2 -3.9 -12.6
7562 -9.3 -8.2 -7.6 -6.7
7563 -9.0 -10.8 -3.7 -7.5
7564 -3.7 -3.9 -12.7 -8.3
7565 -5.6 -10.6 -8.1 -5.3
7566 -3.4 -9.5 -6.0 -8.8
7567 -4.3 -12.1 -10.7 -4.7
7568 46.6 55.9 22.8 29.9
7569 50.6 27.0 42.5 38.6
7570 38.0 35.4 41.2 28.0
7571 44.4 36.4 24.7 53.6
7572 57.0 25.1 20.2 50.2
7573 -4.2 -12.6 -4.8 -7.6
7574 -5.4 -8.6 -5.0 -7.8
7575 52.0 25.4 23.7 30.8
7576 -7.3 -5.2 -10.0 -6.0
7577 26.5 33.6 43.8 37.7
7578 -4.1 -7.9 -12.0 -4.3
7579 -8.2 -5.4 -9.5 -8.3
7580 43.9 21.3 20.7 46.9
7581 -12.1 -3.9 -5.1 -11.3
7582 -10.0 -10.9 -9.9 -6.0
7583 -7.9 -11.0 -7.0 -8.0
7584 -8.9 -4.5 -5.3 -12.2
7585 24.5 50.9 53.8 59.0
7586 30.8 45.3 32.9 40.9
7587 44.2 47.3 56.2 43.0
7588 44.1 58.8 38.8 46.9
7589 -10.0 -3.6 -8.3 -8.2
7590 -6.6 -6.6 -10.6 -4.2
7591 -11.6 -10.4 -4.7 -8.4
7592 39.8 46.1 33.8 23.2
7593 -8.3 -9.3 -10.8 -4.6
7594 -6.6 -3.8 -4.7 -3.9
7595 -6.9 -4.6 -6.8 -9.1
7596 51.4 31.1 20.9 20.9
7597 -7.8 -8.8 -6.4 -4.0
7598 -4.7 -10.6 -6.7 -8.5
7599 47.4 47.5 22.8 46.1
7600 -7.2 -8.7 -6.5 -11.2
7601 -12.4 -7.3 -5.6 -7.0
7602 -5.6 -11.6 -10.0 -8.3
7603 -6.3 -10.4 -6.9 -5.0
7604 51.6 30.1 55.6 40.9
7605 57.7 55.8 58.0 33.6
7606 -11.9 -9.5 -6.3 -7.7
7607 -6.0 -3.7 -7.0 -10.8
7608 59.0 21.7 51.4 38.7
7609 -3.7 -4.9 -6.5 -5.2
7610 -12.4 -10.7 -7.1 -7.4
7611 -6.2 -3.5 -7.1 -11.7
7612 -11.8 -6.0 -5.7 -9.1
7613 -9.4 -8.5 -10.6 -12.1
7614 51.1 53.6 48.7 55.3
7615 -6.1 -4.2 -5.9 -4.0
7616 -8.4 -5.2 -4.2 -10.0
7617 -10.7 -5.6 -3.3 -10.6
7618 -4.5 -9.2 -7.5 -8.8
7619 -6.0 -8.0 -12.8 -5.2
7620 -6.2 -10.8 -5.1 -8.6
7621 35.4 52.2 36.1 54.5
7622 38.5 22.3 43.9 24.6
7623 -11.4 -6.2 -8.5 -5.5
7624 -6.2 -10.7 -8.6 -5.0
7625 -5.9 -11.4 -10.3 -4.2
7626 -4.5 -8.2 -4.3 -10.2
7627 -5.2 -12.7 -4.4 -9.7
7628 -10.5 -9.9 -9.4 -7.3
7629 59.6 24.7 41.3 36.7
7630 -6.1 -8.2 -11.7 -12.6
7631 -8.1 -6.2 -3.8 -8.9
7632 -7.6 -8.0 -9.4 -4.4
7633 -7.6 -7.8 -8.3 -12.1
7634 28.4 21.5 41.2 45.4
7635 56.4 28.7 56.7 36.2
7636 21.1 56.7 28.0 25.2
7637 48.1 33.5 58.7 52.1
7638 -3.8 -12.0 -12.2 -7.4
7639 50.4 30.8 39.3 44.0
7640 52.5 44.2 50.2 32.0
7641 46.1 38.9 28.1 58.2
7642 50.9 56.6 38.4 53.8
7643 -6.1 -9.4 -10.4 -12.4
7644 -8.6 -9.1 -3.9 -10.4
7645 35.3 55.6 31.7 37.9
7646 -10.3 -8.6 -9.9 -3.4
7647 -7.3 -8.5 -5.6 -9.7
7648 21.0 44.9 51.0 42.6
7649 -5.1 -6.0 -4.4 -9.8
7650 -5.3 -3.9 -9.1 -4.5
7651 46.7 40.0 41.7 59.1
7652 28.7 59.4 36.0 48.4
7653 38.8 34.3 56.7 21.0
7654 42.6 27.8 34.9 52.8
7655 35.6 22.2 25.0 51.6
7656 -11.9 -12.0 -4.0 -10.5
7657 -12.0 -4.4 -5.4 -9.6
7658 -5.4 -3.8 -8.5 -3.7
7659 56.3 56.3 30.6 52.4
7660 -9.3 -9.2 -8.9 -5.2
7661 34.1 21.4 54.9 58.0
7662 32.9 54.9 53.9 24.7
7663 -6.3 -11.7 -10.1 -8.8
7664 53.1 53.8 54.6 38.7
7665 44.1 45.5 25.9 58.3
7666 -9.1 -7.7 -7.5 -4.7
7667 -10.8 -5.1 -5.8 -8.3
7668 -3.4 -12.6 -4.0 -11.9
7669 -11.1 -3.8 -12.6 -4.6
7670 -8.6 -10.1 -6.5 -5.5
7671 46.0 34.0 28.6 40.1
7672 -8.4 -8.5 -7.6 -9.7
7673 -6.3 -12.7 -3.4 -12.2
7674 -8.8 -4.7 -9.2 -12.3
7675 -8.6 -7.8 -11.4 -12.5
7676 -12.1 -10.3 -3.7 -10.7
7677 -6.5 -6.3 -6.0 -9.9
7678 21.6 28.8 31.3 58.1
7679 -9.3 -12.0 -11.7 -5.0
7680 39.0 36.6 54.1 21.1
7681 29.9 40.6 55.7 58.5
7682 -3.4 -4.4 -6.0 -9.7
7683 -9.5 -4.3 -6.3 -3.9
7684 -5.4 -4.6 -12.7 -12.3
7685 29.8 56.3 29.1 38.4
7686 51.6 21.1 21.2 48.7
7687 -11.7 -6.2 -6.9 -10.1
7688 32.8 20.9 30.8 45.0
7689 -4.1 -6.0 -9.2 -11.9
7690 -8.8 -7.7 -8.3 -9.2
7691 -5.2 -11.9 -12.6 -10.6
7692 -8.4 -6.5 -6.3 -3.8
7693 27.6 55.2 40.4 54.2
7694 -8.6 -9.3 -12.1 -10.6
7695 -8.9 -4.2 -3.9 -3.6
7696 47.9 56.6 33.1 31.3
7697 55.9 59.0 24.4 27.2
7698 45.6 34.8 25.7 57.8
7699 33.8 20.1 52.5 36.7
7700 24.7 49.0 37.1 38.4
7701 56.6 35.1 39.7 31.3
7702 -9.0 -9.2 -6.1 -7.0
7703 39.1 48.5 45.6 43.6
7704 -10.8 -12.5 -7.1 -6.7
7705 -8.9 -6.5 -5.4 -3.2
7706 -11.6 -8.3 -8.3 -3.3
7707 -7.5 -7.9 -8.9 -7.6
7708 47.4 32.0 38.4 52.8
7709 28.5 52.2 33.2 24.2
7710 -11.8 -10.0 -11.4 -7.9
7711 34.8 56.1 46.8 33.0
7712 -5.9 -8.0 -5.7 -8.6
7713 -12.2 -12.2 -12.5 -12.7
7714 -4.0 -6.2 -3.6 -6.2
7715 57.2 28.4 57.4 50.9
7716 58.5 23.6 56.5 57.5
7717 59.0 52.3 38.9 42.2
7718 40.9 41.7 46.2 43.5
7719 -9.6 -6.6 -4.1 -5.1
7720 57.0 40.3 55.9 43.1
7721 55.1 51.7 35.9 35.2
7722 43.0 56.7 52.5 27.2
7723 -3.9 -10.1 -10.7 -6.4
7724 50.8 37.1 48.8 48.5
7725 -8.2 -9.1 -10.7 -6.1
7726 57.9 44.8 54.5 57.6
7727 -10.5 -5.0 -8.2 -6.9
7728 29.8 49.3 52.1 51.4
7729 35.9 51.0 44.7 53.1
7730 41.9 32.2 31.1 26.5
7731 -6.2 -12.1 -12.3 -8.0
7732 -4.6 -8.0 -11.9 -5.9
7733 -6.5 -9.5 -10.6 -12.5
7734 44.4 46.3 39.1 58.7
7735 -3.8 -8.2 -6.1 -6.7
7736 -11.4 -7.6 -5.9 -3.3
7737 48.7 37.7 31.4 29.3
7738 -7.0 -9.1 -4.3 -11.7
7739 -6.1 -7.1 -6.7 -6.3
7740 53.0 36.0 55.4 31.1
7741 57.8 59.1 35.1 36.2
7742 45.5 47.4 33.7 37.8
7743 -12.2 -3.9 -11.7 -11.4
7744 -5.3 -10.9 -7.8 -9.4
7745 -11.8 -10.4 -5.5 -7.0
7746 -8.1 -11.0 -12.6 -4.0
7747 41.6 46.3 39.7 22.3
7748 -10.7 -10.1 -10.1 -5.9
7749 31.7 37.8 36.3 37.3
7750 -7.9 -5.9 -9.5 -11.5
7751 45.1 42.8 52.4 27.0
7752 -4.0 -6.2 -3.9 -6.7
7753 -8.7 -7.3 -9.7 -3.7
7754 32.4 57.9 47.3 25.3
7755 -12.1 -10.4 -7.8 -4.0
7756 -12.8 -8.6 -9.3 -9.4
7757 -3.9 -11.7 -12.1 -11.7
7758 32.0 46.4 50.4 20.4
7759 20.4 38.4 56.5 47.9
7760 44.7 57.3 56.5 47.4
7761 57.2 28.5 48.1 31.9
7762 35.4 34.9 28.3 39.7
7763 53.9 49.6 44.6 28.7
7764 51.2 42.0 45.8 52.7
7765 21.6 33.0 34.2 54.6
7766 -4.6 -10.9 -12.6 -3.5
7767 22.4 23.3 34.5 22.8
7768 -8.7 -3.7 -9.3 -9.6
7769 -7.8 -7.4 -8.9 -6.5
7770 -5.3 -3.2 -10.1 -12.0
7771 31.1 50.6 57.9 27.1
7772 -6.8 -12.6 -5.8 -8.4
7773 -11.2 -7.4 -11.6 -3.6
7774 -7.5 -12.8 -11.3 -7.4
7775 46.0 44.5 20.4 47.6
7776 -4.4 -12.0 -12.2 -4.3
7777 55.7 26.6 39.7 52.5
7778 48.0 37.1 32.3 46.5
7779 -3.4 -10.6 -4.9 -4.9
7780 30.5 56.2 44.8 24.3
7781 -6.8 -3.5 -10.6 -10.5
7782 -3.8 -6.3 -9.8 -10.1
7783 -11.9 -5.7 -8.0 -3.9
7784 -12.7 -5.3 -8.4 -5.4
7785 -3.4 -7.8 -5.3 -3.6
7786 -6.7 -3.5 -11.9 -9.8
7787 -12.2 -8.6 -8.3 -12.3
7788 46.4 39.1 27.5 26.2
7789 -10.3 -11.5 -7.4 -3.5
7790 54.2 36.2 29.9 31.7
7791 35.2 23.1 27.4 46.9
7792 38.3 59.4 54.9 43.2
7793 35.6 32.1 51.0 49.0
7794 -6.7 -4.8 -8.5 -3.7
7795 25.4 34.5 42.9 53.9
7796 -3.4 -9.1 -4.3 -6.8
7797 20.5 38.5 54.8 47.7
7798 -3.8 -9.4 -12.3 -4.1
7799 -5.3 -4.4 -9.9 -7.0
7800 -5.2 -11.4 -4.3 -3.8
7801 -12.4 -3.2 -7.1 -4.5
7802 28.8 48.4 22.2 42.3
7803 45.4 30.6 44.5 24.4
7804 -8.5 -9.8 -8.7 -11.3
7805 -9.2 -12.5 -4.0 -8.4
7806 -8.0 -3.6 -8.8 -6.7
7807 -4.3 -8.4 -5.9 -8.4
7808 55.2 36.2 50.6 46.1
7809 54.9 55.4 50.9 44.4
7810 38.0 49.2 50.1 49.8
7811 -11.3 -10.8 -3.3 -6.0
7812 39.6 22.5 28.6 42.8
7813 -8.3 -9.0 -8.6 -8.9
7814 45.9 39.1 32.2 21.9
7815 -3.5 -3.8 -5.4 -3.3
7816 42.1 33.4 28.8 26.6
7817 -5.4 -5.9 -6.7 -8.2
7818 34.3 30.0 59.9 51.8
7819 -5.3 -11.3 -10.2 -11.5
7820 22.0 48.4 25.2 31.3
7821 46.5 55.1 42.9 26.2
7822 31.1 31.1 24.8 37.3
7823 37.5 25.7 40.5 36.2
7824 20.2 41.2 28.4 51.0
7825 -7.3 -12.8 -9.6 -3.9
7826 -12.4 -9.0 -11.9 -12.7
7827 22.4 58.1 41.6 31.5
7828 58.3 24.0 49.3 26.0
7829 -9.0 -9.7 -5.2 -3.7
7830 -5.4 -4.3 -8.7 -9.4
7831 -5.6 -7.5 -3.4 -6.9
7832 -9.6 -7.8 -5.1 -10.8
7833 -6.6 -8.9 -5.6 -11.8
7834 55.8 48.7 37.5 29.6
7835 28.5 33.0 49.4 25.7
7836 -4.2 -8.6 -8.9 -9.8
7837 -4.0 -11.6 -6.4 -12.5
7838 -9.5 -8.1 -8.5 -11.7
7839 47.4 36.5 51.9 46.9
7840 -7.3 -8.0 -4.7 -7.4
7841 -12.4 -10.5 -4.9 -11.2
7842 40.6 22.6 34.4 24.8
7843 -3.9 -6.1 -10.6 -8.3
7844 -7.9 -11.0 -8.6 -10.2
7845 42.1 46.6 21.4 46.2
7846 41.5 50.5 50.3 24.1
7847 -8.2 -7.0 -4.0 -4.8
7848 23.8 35.2 34.6 40.1
7849 -3.8 -4.5 -7.2 -9.6
7850 37.4 30.1 42.5 46.1
7851 -9.1 -7.0 -7.7 -5.1
7852 -7.8 -9.3 -6.6 -5.9
7853 51.3 53.0 44.6 46.6
7854 -6.1 -11.6 -10.2 -4.2
7855 37.3 48.1 48.2 31.0
7856 20.7 44.5 44.5 29.1
7857 -8.3 -10.5 -4.4 -7.4
7858 30.5 21.1 32.3 26.4
7859 -5.1 -9.6 -8.7 -7.4
7860 -11.7 -4.5 -6.7 -12.3
7861 -7.2 -4.9 -7.5 -3.6
7862 55.3 43.8 43.2 43.2
7863 34.6 51.4 59.6 46.5
7864 -3.8 -8.3 -5.1 -11.4
7865 57.6 35.6 44.5 43.2
7866 46.2 44.6 40.9 44.3
7867 58.0 43.6 53.1 31.0
7868 -7.2 -3.9 -11.5 -6.3
7869 45.6 33.7 46.5 48.9
7870 -6.2 -7.3 -10.4 -12.6
7871 -9.6 -4.1 -4.1 -9.5
7872 -9.9 -11.2 -5.2 -3.8
7873 -4.3 -9.6 -4.4 -5.6
7874 -4.8 -6.8 -5.6 -5.0
7875 45.6 26.6 58.0 59.3
7876 -10.1 -7.2 -6.0 -12.7
7877 -12.1 -4.5 -9.0 -11.0
7878 48.7 26.5 32.7 43.1
7879 -10.2 -10.5 -11.6 -3.7
7880 -3.9 -6.0 -9.2 -4.1
7881 42.6 42.1 40.9 30.5
7882 -3.6 -5.2 -10.6 -5.9
7883 -6.4 -8.1 -5.2 -9.9
7884 22.8 41.9 35.3 51.2
7885 33.1 24.7 40.4 37.3
7886 -4.4 -10.9 -9.3 -7.2
7887 -8.8 -3.7 -12.0 -7.7
7888 -11.5 -3.2 -3.4 -10.8
7889 -9.5 -10.4 -9.3 -8.9
7890 -4.9 -9.7 -9.0 -5.3
7891 -11.9 -6.3 -5.0 -7.2
7892 -4.4 -10.5 -8.7 -3.8
7893 -11.2 -12.4 -11.3 -5.8
7894 21.8 29.3 58.5 29.8
7895 -9.1 -10.7 -8.0 -6.2
7896 53.6 21.2 32.9 28.7
7897 -5.4 -4.5 -4.8 -9.5
7898 24.6 43.6 30.9 54.7
7899 -6.3 -5.1 -8.4 -7.1
7900 -9.8 -5.7 -3.6 -10.0
7901 48.8 59.3 56.5 22.5
7902 -12.9 -6.1 -11.5 -6.1
7903 -10.8 -6.2 -7.3 -7.2
7904 53.3 29.4 34.5 34.8
7905 -11.3 -9.7 -9.1 -8.4
7906 -4.0 -3.5 -4.9 -8.0
7907 -12.3 -9.1 -10.0 -11.2
7908 -10.3 -4.9 -9.9 -3.7
7909 -9.4 -9.0 -12.7 -9.7
7910 -12.3 -4.0 -3.7 -11.7
7911 -9.5 -10.6 -6.2 -7.3
7912 -3.3 -11.1 -8.1 -10.0
7913 59.4 39.3 23.4 49.8
7914 -4.7 -6.6 -4.6 -6.9
7915 -8.5 -7.5 -9.3 -12.0
7916 42.2 30.7 31.0 33.3
7917 -7.5 -4.0 -7.1 -10.2
7918 -12.6 -9.8 -6.7 -4.5
7919 -5.6 -12.8 -10.2 -5.6
7920 -5.5 -9.8 -9.7 -8.8
7921 -9.3 -10.9 -4.2 -12.6
7922 -7.7 -9.3 -5.1 -11.2
7923 -6.4 -12.4 -8.3 -8.5
7924 24.3 45.5 26.0 47.1
7925 39.4 34.3 51.2 53.2
7926 0.0 0.0 0.0 0.0
7927 -12.0 -5.8 -9.9 -6.8
7928 53.3 45.9 41.8 43.9
7929 -4.7 -6.8 -5.5 -7.1
7930 27.9 30.1 47.7 38.7
7931 -7.9 -9.6 -9.6 -10.4
7932 0.0 0.0 0.0 0.0
7933 -7.2 -7.2 -10.6 -9.1
7934 -6.3 -12.5 -3.2 -7.3
7935 -8.4 -4.6 -4.6 -5.9
7936 41.6 42.1 56.1 46.6
7937 -4.5 -8.0 -9.6 -10.7
7938 38.6 27.7 36.3 32.6
7939 -6.8 -5.5 -8.1 -6.1
7940 41.0 45.9 55.3 54.4
7941 29.7 42.7 45.3 35.9
7942 -12.2 -10.5 -8.5 -6.2
7943 42.3 47.0 50.3 30.8
7944 -10.5 -11.0 -8.0 -12.0
7945 -7.7 -10.5 -12.2 -4.7
7946 -9.9 -5.3 -6.2 -5.1
7947 -4.9 -10.7 -11.5 -10.1
7948 -10.6 -8.2 -3.3 -5.7
7949 -12.7 -12.2 -5.8 -5.0
7950 -7.7 -11.8 -10.3 -4.6
7951 0.0 0.0 0.0 0.0
7952 -7.4 -11.1 -6.0 -9.2
7953 -8.1 -4.7 -4.4 -5.2
7954 54.9 33.6 50.6 51.2
7955 -12.7 -6.7 -6.8 -11.8
7956 -9.8 -8.3 -6.1 -9.7
7957 52.2 26.2 40.7 27.8
7958 -9.2 -4.6 -4.7 -12.5
7959 40.4 50.4 39.7 50.9
7960 -12.7 -10.4 -8.5 -9.6
7961 58.0 37.1 39.1 32.6
7962 -9.6 -4.6 -10.5 -11.7
7963 -11.9 -9.9 -9.8 -4.3
7964 -4.0 -12.3 -8.4 -7.6
7965 21.3 20.0 54.4 23.1
7966 55.2 35.7 60.0 21.8
7967 56.2 39.5 22.0 31.1
7968 -10.8 -7.9 -8.7 -11.2
7969 -11.5 -8.9 -9.2 -6.6
7970 54.1 50.6 26.1 42.6
7971 36.5 34.1 43.2 47.0
7972 59.0 24.8 31.0 42.8
7973 -9.8 -10.4 -10.3 -6.9
7974 -5.4 -7.3 -6.7 -6.3
7975 28.9 46.2 35.1 43.7
7976 -8.7 -6.2 -12.4 -3.7
7977 42.4 58.1 48.5 33.9
7978 -10.0 -7.2 -7.1 -4.4
7979 57.3 40.9 32.1 34.0
7980 56.7 35.9 41.5 37.7
7981 -11.7 -3.4 -6.3 -11.2
7982 36.8 36.9 55.7 49.1
7983 -4.4 -9.9 -9.8 -8.8
7984 56.3 43.2 34.6 49.2
7985 -9.3 -11.1 -8.8 -7.2
7986 -8.3 -10.1 -3.3 -11.6
7987 -8.9 -3.6 -11.0 -12.5
7988 -4.6 -4.3 -12.3 -4.4
7989 28.4 45.6 47.9 59.0
7990 21.9 56.0 53.7 47.1
7991 -7.6 -9.1 -11.7 -10.5
7992 0.0 0.0 0.0 0.0
7993 -10.0 -5.8 -3.4 -12.6
7994 -6.9 -3.4 -4.8 -10.5
7995 0.0 0.0 0.0 0.0
7996 53.8 38.7 46.0 45.2
7997 58.4 34.2 31.9 36.6
7998 27.3 34.8 46.5 36.9
7999 48.0 26.6 51.5 53.6
8000 31.3 54.6 40.6 26.4
8001 44.9 44.6 50.8 56.9
8002 -6.9 -6.0 -5.5 -5.2
8003 30.1 20.9 38.4 35.9
8004 -4.7 -12.2 -9.1 -11.3
8005 58.2 25.2 42.5 55.4
8006 -8.4 -11.4 -4.9 -11.1
8007 -12.0 -5.9 -12.8 -10.0
8008 50.3 40.2 34.9 45.3
8009 -12.3 -5.7 -8.2 -5.8
8010 -3.6 -11.1 -10.7 -3.7
8011 -4.8 -5.9 -8.8 -3.6
8012 -11.3 -5.1 -8.5 -8.3
8013 24.4 59.5 50.4 59.2
8014 44.4 57.3 57.1 31.2
8015 22.9 44.5 39.2 32.9
8016 51.1 31.3 41.5 20.5
8017 26.4 59.1 22.8 20.9
8018 21.9 53.5 33.9 50.3
8019 27.3 45.6 45.1 46.1
8020 36.6 30.9 31.5 50.4
8021 0.0 0.0 0.0 0.0
8022 32.7 59.8 24.4 23.0
8023 -11.4 -6.2 -6.5 -5.7
8024 -6.8 -5.4 -11.9 -8.7
8025 -3.3 -6.6 -4.0 -10.4
8026 -5.2 -9.5 -5.7 -3.8
8027 27.5 43.0 59.0 39.5
8028 -10.3 -3.5 -9.4 -10.8
8029 40.6 29.1 31.4 58.6
8030 -7.7 -4.5 -9.8 -3.8
8031 -12.6 -5.2 -8.2 -4.3
8032 27.0 40.5 59.1 46.1
8033 -5.8 -11.6 -4.0 -7.9
8034 -3.7 -12.1 -4.5 -12.2
8035 -3.8 -7.4 -12.7 -7.2
8036 -8.6 -8.7 -3.7 -10.8
8037 22.5 47.8 40.4 40.0
8038 -6.4 -3.3 -3.7 -12.5
8039 33.2 51.5 48.6 57.4
8040 -8.9 -7.5 -12.8 -10.6
8041 -5.5 -11.3 -5.9 -6.2
8042 59.6 55.2 24.4 45.0
8043 -10.5 -10.6 -5.9 -12.6
8044 -6.0 -8.7 -5.2 -10.8
8045 -5.9 -9.8 -12.0 -9.4
8046 -5.4 -3.7 -6.6 -8.9
8047 48.0 55.8 42.0 25.1
8048 25.1 46.7 37.7 48.2
8049 57.2 33.1 56.0 29.5
8050 -11.2 -10.7 -6.5 -7.3
8051 -8.7 -10.4 -12.0 -12.5
8052 -7.6 -11.4 -9.3 -11.3
8053 23.1 45.3 50.8 34.1
8054 36.3 31.6 57.1 59.3
8055 51.4 38.4 51.8 50.2
8056 -4.1 -12.7 -4.9 -10.4
8057 27.1 48.7 54.2 23.3
8058 59.3 44.2 54.2 43.7
8059 -8.5 -11.0 -4.0 -7.1
8060 -4.9 -5.3 -11.5 -11.0
8061 0.0 0.0 0.0 0.0
8062 26.6 38.5 51.6 20.5
8063 -7.1 -4.8 -3.3 -7.7
8064 -4.3 -7.1 -7.3 -3.9
8065 39.5 55.0 33.4 41.1
8066 36.4 26.5 39.8 48.1
8067 -9.5 -5.7 -6.9 -10.6
8068 41.2 30.0 35.9 32.1
8069 -9.3 -5.7 -5.0 -9.9
8070 49.0 59.8 45.1 32.1
8071 -3.3 -9.8 -4.0 -6.6
8072 51.4 54.5 35.5 26.8
8073 36.5 31.3 40.0 31.6
8074 -9.6 -10.2 -8.5 -6.0
8075 -3.3 -11.9 -9.8 -10.9
8076 44.8 25.8 44.9 54.3
8077 -7.9 -6.6 -3.2 -8.5
8078 44.8 42.9 45.4 51.3
8079 59.8 47.1 34.0 57.7
8080 43.0 32.1 57.3 30.3
8081 55.7 45.8 54.6 27.3
8082 -6.1 -12.6 -10.2 -12.7
8083 -7.6 -7.7 -6.4 -4.8
8084 22.9 51.3 22.3 22.8
8085 -7.6 -7.4 -5.4 -10.9
8086 -7.8 -7.2 -8.5 -11.1
8087 -12.7 -4.1 -10.1 -9.5
8088 41.1 39.6 55.9 52.4
8089 48.8 37.5 47.7 41.7
8090 39.0 53.5 47.1 30.1
8091 55.7 30.9 33.0 52.0
8092 58.0 51.6 45.0 20.7
8093 -12.4 -5.0 -10.3 -10.4
8094 53.8 34.4 34.0 48.3
8095 53.8 47.7 32.1 23.5
8096 51.8 26.0 33.2 49.5
8097 50.6 40.5 33.2 25.4
8098 30.6 58.1 28.9 35.9
8099 -9.8 -7.7 -9.1 -6.9
8100 -6.3 -5.5 -3.9 -11.7
8101 39.7 23.1 24.1 55.2
8102 -11.4 -9.9 -8.8 -11.9
8103 -7.2 -10.5 -3.4 -11.6
8104 -4.8 -12.7 -3.7 -11.2
8105 -9.6 -12.5 -8.3 -11.0
8106 -8.1 -3.7 -7.2 -10.2
8107 -10.8 -7.1 -8.4 -9.6
8108 35.8 34.1 42.7 36.0
8109 -10.8 -8.2 -10.6 -10.9
8110 -6.0 -11.0 -5.5 -9.7
8111 44.9 30.1 49.4 31.8
8112 47.4 26.6 58.2 49.1
8113 -11.5 -11.3 -11.3 -5.6
8114 37.0 31.0 22.1 41.5
8115 -3.8 -10.0 -11.5 -11.9
8116 56.4 34.7 55.2 27.8
8117 -10.4 -10.6 -4.6 -9.7
8118 32.7 26.5 35.4 40.7
8119 32.9 52.0 55.1 50.0
8120 -11.0 -6.4 -10.2 -8.5
8121 23.2 42.7 48.3 20.1
8122 48.4 45.1 40.4 43.9
8123 -6.2 -9.3 -4.2 -5.4
8124 -10.7 -4.9 -7.2 -7.2
8125 47.1 25.3 40.9 47.5
8126 57.9 50.1 35.8 22.1
8127 -4.2 -9.6 -7.6 -4.8
8128 50.3 24.8 55.3 29.8
8129 47.1 45.9 57.2 49.5
8130 29.9 40.3 58.7 32.0
8131 48.8 43.3 30.7 50.4
8132 -7.3 -10.5 -12.0 -12.4
8133 -8.1 -10.6 -6.9 -4.9
8134 48.4 25.7 45.1 29.6
8135 34.5 36.3 53.7 54.2
8136 -8.5 -9.0 -10.0 -9.8
8137 22.7 22.0 48.4 53.0
8138 -5.9 -12.2 -6.7 -12.1
8139 -10.2 -11.7 -12.2 -6.9
8140 -12.6 -7.3 -5.2 -9.8
8141 42.4 49.9 53.2 35.6
8142 -4.0 -11.2 -6.2 -5.4
8143 35.0 24.9 37.9 21.9
8144 -6.3 -6.2 -7.5 -12.1
8145 45.4 30.3 30.6 39.4
8146 -9.3 -8.1 -3.3 -8.2
8147 -11.4 -5.7 -12.7 -11.3
8148 55.3 49.8 53.3 59.1
8149 30.4 46.0 56.6 25.5
8150 37.0 22.1 28.1 44.9
8151 -6.4 -12.2 -11.7 -8.2
8152 53.1 49.0 34.6 23.8
8153 -11.1 -3.4 -3.4 -8.5
8154 40.9 44.4 21.5 41.7
8155 -5.8 -9.6 -11.8 -7.1
8156 23.9 35.8 49.9 48.4
8157 32.8 25.5 56.3 39.2
8158 44.4 25.3 20.9 39.8
8159 -10.6 -3.9 -6.8 -7.3
8160 -11.6 -3.6 -7.1 -7.4
8161 -5.6 -4.1 -8.0 -5.8
8162 57.7 39.9 30.1 39.5
8163 -10.4 -10.1 -8.0 -5.9
8164 57.1 34.8 32.8 21.9
8165 56.0 20.4 31.1 48.1
8166 -7.4 -9.8 -4.9 -9.7
8167 -5.0 -6.5 -12.4 -7.0
8168 -3.9 -12.1 -3.3 -12.4
8169 56.9 35.1 35.7 46.4
8170 -6.6 -4.8 -8.3 -7.2
8171 -10.9 -12.3 -10.3 -11.8
8172 33.8 35.0 52.6 38.5
8173 -3.9 -7.9 -10.5 -12.0
8174 -5.5 -10.8 -8.6 -8.2
8175 39.4 57.2 24.7 37.4
8176 -8.6 -10.6 -10.8 -3.7
8177 -12.7 -11.0 -10.5 -5.7
8178 -5.7 -10.6 -11.7 -4.9
8179 -9.5 -8.9 -10.0 -8.5
8180 -12.6 -6.7 -4.1 -7.0
8181 -11.0 -6.8 -8.5 -11.5
8182 29.8 37.2 51.4 59.8
8183 37.3 28.5 45.7 45.7
8184 -6.3 -6.6 -9.8 -8.6
8185 20.8 42.7 58.6 54.5
8186 25.6 38.8 34.2 40.7
8187 -4.1 -9.5 -3.8 -4.8
8188 38.0 59.8 25.5 56.4
8189 -12.7 -8.8 -5.0 -8.5
8190 24.9 40.9 37.5 36.6
8191 -4.5 -10.3 -5.3 -12.1
8192 -7.1 -9.4 -6.2 -8.8
8193 26.6 43.2 44.0 42.1
8194 -7.1 -4.2 -9.0 -5.8
8195 -4.6 -11.3 -3.9 -5.0
8196 -9.0 -9.4 -4.8 -9.3
8197 -5.3 -7.2 -9.5 -10.3
8198 -10.2 -9.5 -5.5 -11.6
8199 21.2 44.5 57.2 37.2
8200 57.2 46.6 38.0 29.6
8201 -9.9 -11.2 -8.4 -8.4
8202 -7.2 -10.5 -6.0 -4.7
8203 -9.1 -10.8 -8.6 -6.0
8204 -8.7 -5.5 -8.9 -12.2
8205 -12.0 -9.4 -11.1 -3.3
8206 -9.1 -5.9 -7.3 -11.7
8207 -12.9 -4.6 -6.2 -10.7
8208 24.3 32.6 30.0 20.2
8209 52.0 28.2 30.8 36.2
8210 47.7 54.0 58.9 32.3
8211 -9.4 -8.9 -7.8 -5.4
8212 43.7 52.5 25.5 51.4
8213 -5.0 -6.5 -5.9 -5.2
8214 -6.8 -4.1 -10.4 -11.5
8215 21.2 54.7 33.9 29.5
8216 48.2 25.3 57.4 58.9
8217 -9.1 -9.9 -5.5 -10.9
8218 21.2 38.4 32.5 33.1
8219 -3.4 -9.9 -12.7 -5.9
8220 41.3 54.6 39.3 39.0
8221 43.8 56.1 34.0 28.9
8222 51.2 45.6 33.0 29.4
8223 -3.9 -9.9 -10.2 -5.1
8224 -12.7 -3.8 -12.2 -9.4
8225 25.4 46.6 31.6 38.1
8226 -5.6 -7.9 -3.5 -10.7
8227 -11.1 -6.8 -9.7 -10.5
8228 33.7 42.3 58.4 56.4
8229 -12.6 -3.2 -11.9 -7.5
8230 -3.8 -5.8 -10.2 -4.7
8231 -5.7 -11.7 -3.7 -8.5
8232 36.8 30.5 23.2 22.4
8233 -10.1 -11.5 -7.8 -11.3
8234 -12.7 -8.9 -7.2 -6.7
8235 -10.7 -5.0 -4.5 -8.1
8236 -4.2 -7.8 -3.2 -7.1
8237 -11.6 -10.0 -6.9 -3.7
8238 -8.1 -9.1 -12.7 -3.5
8239 -5.3 -7.7 -9.4 -4.9
8240 -5.2 -10.6 -4.7 -8.0
8241 -8.9 -6.0 -4.2 -8.7
8242 34.2 33.1 54.2 20.4
8243 -9.2 -3.8 -9.8 -11.9
8244 -7.5 -5.0 -9.7 -12.5
8245 -4.0 -11.5 -12.6 -3.9
8246 -7.9 -7.5 -8.4 -8.8
8247 36.4 38.7 48.1 51.0
8248 45.5 43.8 37.0 37.7
8249 40.5 22.4 35.9 25.3
8250 -8.8 -4.6 -11.0 -11.6
8251 -12.3 -11.6 -12.1 -4.5
8252 -6.6 -11.8 -11.1 -3.8
8253 -6.3 -8.5 -8.4 -6.0
8254 -8.5 -6.8 -8.7 -7.4
8255 -7.0 -7.0 -6.7 -10.6
8256 -9.9 -7.0 -8.2 -4.3
8257 -6.2 -6.0 -10.2 -8.1
8258 26.0 50.0 25.1 25.4
8259 -7.2 -12.6 -11.3 -8.4
8260 -7.5 -11.3 -7.2 -11.4
8261 -5.4 -11.0 -3.2 -5.1
8262 25.0 23.6 30.3 44.6
8263 44.6 41.9 39.0 48.8
8264 -10.2 -9.3 -5.3 -11.9
8265 -12.0 -7.4 -11.2 -6.7
8266 24.4 25.8 27.6 28.0
8267 38.6 54.4 58.8 31.4
8268 37.3 43.0 46.9 33.7
8269 40.2 56.2 20.6 23.8
8270 -3.3 -6.6 -4.4 -10.1
8271 -9.8 -10.5 -9.2 -7.5
8272 -5.7 -9.5 -9.5 -5.5
8273 -3.5 -4.9 -5.5 -11.7
8274 52.7 40.2 39.0 32.7
8275 -4.4 -9.7 -7.9 -5.5
8276 -3.2 -7.1 -6.2 -5.7
8277 -11.9 -9.8 -4.7 -7.5
8278 -9.1 -10.2 -8.8 -11.3
8279 54.6 36.5 40.8 59.0
8280 -11.8 -6.3 -9.3 -10.8
8281 -7.0 -3.8 -7.2 -6.7
8282 -3.3 -6.0 -10.6 -7.8
8283 59.5 47.2 44.0 38.5
8284 -10.2 -12.8 -5.9 -12.5
8285 46.8 56.9 57.0 33.6
8286 -6.9 -12.1 -5.1 -8.8
8287 -4.4 -6.6 -8.0 -5.3
8288 -4.2 -5.6 -3.8 -10.6
8289 -7.5 -3.7 -10.2 -12.6
8290 -5.4 -10.2 -7.6 -12.6
8291 39.6 55.8 43.3 37.1
8292 -11.2 -10.3 -5.0 -3.7
8293 47.5 54.5 33.1 50.3
8294 47.1 39.4 35.6 38.7
8295 -8.8 -7.7 -8.6 -10.4
8296 -5.6 -8.5 -12.8 -9.9
8297 25.9 53.9 27.7 38.2
8298 -12.8 -11.9 -8.5 -6.4
8299 -4.5 -8.7 -11.9 -8.5
8300 46.7 37.1 36.0 57.2
8301 20.2 52.3 30.7 32.4
8302 -3.7 -11.9 -5.3 -5.2
8303 -6.0 -12.4 -9.2 -7.4
8304 59.2 38.3 42.0 39.1
8305 56.8 43.0 29.4 40.0
8306 -8.0 -11.4 -4.0 -7.9
8307 -7.6 -10.5 -5.4 -11.4
8308 -12.0 -8.5 -4.8 -9.9
8309 -11.3 -6.0 -6.8 -3.4
8310 -9.1 -9.4 -7.5 -9.6
8311 -7.5 -6.4 -4.0 -12.4
8312 -4.2 -8.8 -6.4 -7.2
8313 44.1 23.6 27.4 58.6
8314 42.0 56.0 36.3 58.4
8315 -10.6 -8.1 -4.3 -12.6
8316 -10.0 -12.8 -3.5 -12.1
8317 27.0 38.0 33.5 58.0
8318 -11.8 -6.5 -7.7 -6.1
8319 38.0 38.3 25.2 28.9
8320 31.7 37.4 32.1 26.1
8321 59.7 34.2 40.0 24.7
8322 40.2 40.7 56.7 28.1
8323 -12.8 -8.6 -5.8 -12.4
8324 29.3 34.9 50.9 24.7
8325 -9.4 -6.8 -7.7 -6.8
8326 -11.3 -8.7 -7.5 -11.4
8327 -8.2 -11.5 -12.5 -6.0
8328 45.3 22.9 26.1 43.8
8329 -7.6 -5.2 -5.6 -4.8
8330 -6.8 -9.1 -5.3 -9.1
8331 45.4 59.4 39.3 55.4
8332 -5.3 -9.9 -3.4 -6.4
8333 -12.9 -3.3 -3.6 -3.4
8334 36.9 42.8 55.9 55.0
8335 56.8 48.2 53.1 45.2
8336 37.0 49.5 24.6 29.9
8337 -10.6 -5.1 -9.1 -4.3
8338 -6.7 -9.7 -5.2 -6.1
8339 -6.1 -11.9 -7.1 -11.5
8340 23.1 39.0 41.2 21.0
8341 39.8 56.8 46.0 59.1
8342 -7.8 -3.3 -7.9 -4.4
8343 -5.4 -9.4 -8.1 -6.1
8344 -3.3 -11.8 -5.1 -4.5
8345 -4.2 -9.7 -12.7 -4.1
8346 26.2 43.8 45.3 53.4
8347 32.7 29.7 30.3 57.1
8348 -12.5 -9.1 -6.0 -9.8
8349 26.9 53.1 44.8 29.6
8350 -11.0 -9.1 -3.4 -8.7
8351 41.1 26.5 55.5 37.1
8352 -6.5 -4.6 -10.1 -4.2
8353 39.8 45.1 30.2 42.0
8354 41.8 57.4 46.6 33.3
8355 32.9 49.5 35.2 24.8
8356 -11.7 -6.5 -8.0 -7.8
8357 -9.7 -8.8 -4.9 -7.6
8358 59.5 21.2 36.6 21.6
8359 -4.0 -10.2 -5.3 -4.3
8360 -8.9 -11.0 -7.2 -8.5
8361 45.1 34.6 22.2 44.8
8362 -4.8 -4.9 -9.5 -12.1
8363 20.2 37.5 59.8 21.5
8364 -6.8 -9.7 -10.3 -12.5
8365 -3.7 -12.6 -8.6 -5.0
8366 48.6 49.3 47.5 58.4
8367 -12.3 -8.2 -7.6 -10.4
8368 31.3 36.1 31.6 20.2
8369 -9.8 -6.8 -12.1 -10.4
8370 50.9 36.9 39.1 33.8
8371 50.3 37.2 53.4 59.2
8372 -9.7 -4.1 -5.9 -9.1
8373 -11.7 -11.2 -12.2 -4.0
8374 58.1 39.5 59.1 54.2
8375 -8.5 -8.3 -9.2 -12.5
8376 -12.5 -7.3 -10.9 -5.8
8377 -7.1 -5.7 -9.1 -3.6
8378 -12.3 -4.3 -4.4 -4.6
8379 -5.6 -3.8 -3.4 -5.7
8380 25.5 33.9 44.0 25.1
8381 -12.1 -4.6 -7.3 -11.6
8382 -8.8 -5.6 -6.3 -10.4
8383 -12.5 -4.5 -4.2 -6.7
8384 -12.3 -7.2 -5.3 -10.5
8385 -10.6 -3.3 -11.2 -3.5
8386 -7.6 -8.9 -5.1 -5.6
8387 53.6 49.0 31.5 46.6
8388 -12.3 -3.5 -10.7 -10.6
8389 -4.7 -9.6 -5.9 -10.0
8390 -7.2 -8.7 -7.9 -4.6
8391 42.6 55.3 20.9 56.9
8392 -8.3 -10.8 -12.2 -4.5
8393 -9.6 -6.9 -4.0 -11.2
8394 36.5 29.8 36.9 36.5
8395 -10.3 -3.8 -6.7 -4.6
8396 23.0 47.1 56.3 25.2
8397 35.2 27.8 59.4 29.5
8398 43.3 51.4 27.3 40.5
8399 40.7 30.6 55.5 40.0
8400 -7.9 -12.6 -10.6 -4.4
8401 30.5 20.2 31.6 45.0
8402 -7.3 -6.1 -7.5 -12.5
8403 -9.7 -10.5 -8.9 -8.5
8404 -4.8 -12.4 -7.8 -9.9
8405 57.2 52.2 40.6 46.8
8406 -9.6 -5.3 -8.0 -8.8
8407 -4.9 -5.7 -4.9 -10.4
8408 -12.0 -7.2 -10.5 -10.5
8409 -3.5 -9.2 -3.4 -10.1
8410 50.9 40.8 32.8 56.2
8411 21.0 46.9 35.6 25.6
8412 -3.7 -12.7 -12.7 -10.9
8413 -6.3 -3.5 -4.7 -7.4
8414 -5.5 -11.1 -12.4 -6.3
8415 20.3 29.8 48.0 24.0
8416 -8.1 -9.9 -6.1 -7.0
8417 36.8 41.9 48.5 47.2
8418 -8.1 -11.4 -4.1 -10.8
8419 -12.2 -6.4 -10.6 -8.8
8420 -6.0 -5.7 -10.1 -4.2
8421 -4.7 -5.3 -12.2 -7.5
8422 -10.3 -5.7 -11.9 -3.7
8423 -8.7 -11.0 -12.4 -10.0
8424 -5.5 -8.2 -7.3 -8.3
8425 -10.2 -3.5 -11.5 -6.8
8426 -5.3 -4.6 -12.0 -12.6
8427 27.2 43.8 42.7 31.2
8428 27.4 59.6 52.4 32.3
8429 -12.2 -7.1 -10.6 -12.0
8430 -8.7 -6.0 -7.6 -6.2
8431 -7.4 -8.7 -6.6 -4.9
8432 -10.9 -7.1 -7.3 -10.8
8433 -7.2 -7.0 -10.9 -11.0
8434 -4.7 -12.6 -6.4 -10.6
8435 -7.4 -8.4 -11.8 -9.7
8436 -12.3 -11.6 -10.6 -3.4
8437 -10.8 -5.1 -6.0 -9.5
8438 -5.0 -3.4 -7.5 -11.4
8439 -5.8 -11.8 -12.8 -4.5
8440 -7.1 -10.9 -5.3 -5.7
8441 29.1 25.2 55.8 38.6
8442 -4.1 -9.6 -5.2 -9.9
8443 26.9 49.3 56.0 48.5
8444 -5.3 -7.7 -8.9 -5.7
8445 36.7 27.0 29.9 29.9
8446 48.5 38.2 52.2 53.6
8447 23.5 23.4 40.1 29.7
8448 22.3 48.5 44.3 43.2
8449 -5.8 -5.2 -12.2 -8.2
8450 -7.4 -3.9 -3.5 -4.3
8451 -9.2 -10.5 -4.2 -8.6
8452 -5.0 -10.7 -5.7 -3.4
8453 -5.3 -10.2 -10.6 -9.8
8454 -5.6 -6.3 -7.3 -8.4
8455 39.6 36.8 48.9 46.8
8456 -9.2 -7.6 -9.3 -11.8
8457 45.4 42.0 31.1 56.6
8458 49.0 37.3 32.7 55.9
8459 -10.2 -4.0 -8.8 -7.0
8460 -5.2 -7.5 -12.6 -8.4
8461 28.5 55.8 57.7 23.1
8462 -12.6 -12.6 -7.4 -3.5
8463 -5.8 -4.5 -11.1 -3.4
8464 -8.7 -6.6 -10.8 -11.0
8465 -8.1 -8.7 -10.5 -8.2
8466 -11.7 -5.0 -11.0 -6.7
8467 -8.1 -11.3 -9.9 -5.5
8468 -8.4 -7.2 -9.9 -4.1
8469 -11.9 -9.4 -9.4 -11.7
8470 49.1 26.4 33.9 38.6
8471 -7.1 -6.7 -7.8 -9.1
8472 56.8 54.5 43.9 54.8
8473 46.9 20.2 21.7 50.9
8474 58.2 34.3 41.6 53.0
8475 57.9 49.8 29.1 20.2
8476 -4.2 -5.5 -7.2 -5.3
8477 -5.7 -10.7 -7.6 -11.1
8478 37.7 50.2 35.1 51.2
8479 -5.8 -10.8 -10.1 -10.8
8480 -4.0 -7.5 -4.8 -6.4
8481 -12.7 -4.5 -6.7 -7.7
8482 -9.2 -8.4 -8.1 -5.7
8483 20.7 51.5 43.1 28.6
8484 -10.9 -3.5 -5.5 -8.4
8485 -11.2 -4.7 -7.0 -8.2
8486 35.1 51.7 54.8 32.1
8487 -5.2 -9.2 -9.8 -12.4
8488 -6.2 -9.4 -11.0 -4.3
8489 36.0 28.9 48.7 39.8
8490 -7.8 -8.6 -7.9 -4.0
8491 -10.9 -7.3 -10.5 -7.8
8492 -11.2 -11.8 -9.8 -6.1
8493 -5.7 -4.2 -7.8 -6.9
8494 -5.0 -5.6 -10.0 -4.8
8495 40.4 47.8 52.8 40.5
8496 -7.8 -8.3 -7.6 -11.3
8497 -4.0 -4.5 -8.3 -8.7
8498 46.8 56.0 25.3 55.6
8499 -4.5 -9.6 -4.9 -9.1
8500 57.6 47.9 22.6 44.8
8501 -11.5 -10.5 -10.2 -10.7
8502 37.1 34.8 40.7 37.0
8503 -6.9 -10.4 -3.6 -4.7
8504 -10.8 -12.7 -8.6 -8.6
8505 52.5 56.2 27.7 35.4
8506 45.3 31.5 27.7 51.0
8507 -5.5 -5.6 -7.3 -4.4
8508 56.3 25.1 59.2 53.3
8509 -10.1 -4.0 -3.5 -10.8
8510 -11.2 -9.0 -11.4 -8.8
8511 44.7 49.6 59.6 34.6
8512 -12.1 -9.4 -6.2 -10.0
8513 -3.8 -7.1 -6.2 -4.4
8514 30.2 32.7 47.4 38.8
8515 -7.2 -4.3 -8.5 -5.9
8516 -10.4 -3.7 -10.9 -7.3
8517 -3.3 -5.2 -8.7 -10.6
8518 -3.6 -11.8 -8.9 -12.0
8519 49.3 22.5 56.9 41.7
8520 -9.6 -11.0 -4.1 -9.9
8521 -11.5 -5.1 -4.2 -11.7
8522 -10.7 -11.2 -5.2 -8.4
8523 -12.2 -12.6 -10.7 -10.6
8524 37.3 57.9 43.3 49.8
8525 -10.6 -4.3 -4.1 -10.8
8526 -6.6 -7.4 -8.7 -5.3
8527 -10.9 -4.5 -5.1 -11.7
8528 -10.1 -9.4 -5.1 -3.3
8529 -4.9 -9.0 -11.0 -11.6
8530 43.6 30.4 59.3 53.2
8531 27.0 25.2 56.5 55.4
8532 -12.1 -4.9 -7.7 -8.0
8533 28.4 52.7 40.0 54.8
8534 -4.3 -7.1 -8.4 -12.2
8535 48.3 25.3 30.3 29.3
8536 -11.3 -3.4 -11.9 -4.3
8537 -7.9 -4.1 -11.7 -12.5
8538 -4.0 -6.0 -4.6 -3.7
8539 -7.6 -11.1 -4.1 -4.2
8540 20.7 59.5 26.2 53.7
8541 25.0 44.0 45.3 25.4
8542 -10.8 -7.0 -6.8 -9.4
8543 40.0 27.9 20.5 30.2
8544 -4.7 -4.8 -3.4 -4.0
8545 55.4 47.9 42.1 27.5
8546 45.5 41.2 24.9 26.1
8547 -10.8 -6.4 -5.6 -7.5
8548 43.8 46.6 45.0 28.1
8549 -9.5 -10.2 -7.8 -9.1
8550 -11.8 -6.3 -10.5 -12.1
8551 35.1 53.6 57.9 33.8
8552 -4.5 -7.1 -9.2 -11.8
8553 -4.1 -7.0 -4.0 -6.4
8554 -9.3 -4.4 -9.9 -8.3
8555 48.4 44.7 21.6 55.2
8556 45.3 38.8 24.4 49.1
8557 -5.0 -5.9 -4.9 -12.6
8558 -4.1 -8.1 -8.1 -8.2
8559 24.0 25.1 43.7 27.9
8560 -3.3 -12.3 -9.1 -4.5
8561 54.7 42.1 23.7 38.1
8562 -9.7 -6.1 -7.5 -7.1
8563 -9.6 -5.5 -10.4 -6.2
8564 -9.7 -8.3 -4.5 -8.7
8565 -3.4 -5.2 -10.7 -12.7
8566 30.6 42.6 21.2 59.3
8567 -10.2 -7.1 -10.4 -7.1
8568 -8.1 -10.0 -3.2 -9.0
8569 -10.0 -12.1 -9.0 -9.6
8570 -8.5 -8.6 -5.3 -9.5
8571 -12.9 -9.1 -12.4 -8.1
8572 38.6 55.0 56.7 39.5
8573 22.0 34.3 49.7 32.5
8574 -10.0 -8.3 -7.5 -3.9
8575 -10.4 -6.3 -5.8 -6.3
8576 -11.3 -7.7 -5.6 -12.4
8577 -9.2 -7.3 -7.6 -11.2
8578 51.9 58.4 24.4 39.0
8579 21.6 42.3 43.8 23.0
8580 38.9 31.0 36.1 55.7
8581 36.6 35.4 20.5 59.1
8582 -9.2 -4.8 -8.8 -10.6
8583 -12.5 -5.8 -5.1 -6.6
8584 -4.5 -12.1 -12.3 -4.1
8585 -9.1 -7.2 -5.1 -9.1
8586 -5.5 -7.6 -8.3 -8.0
8587 47.0 33.6 54.4 56.7
8588 47.4 22.4 51.7 38.5
8589 -9.1 -3.8 -5.5 -10.9
8590 -4.8 -8.9 -7.5 -8.5
8591 -12.1 -7.6 -7.2 -8.5
8592 -8.1 -6.1 -7.5 -8.2
8593 32.2 50.3 47.1 39.1
8594 52.0 57.1 42.2 36.4
8595 -9.6 -3.2 -11.7 -10.6
8596 -5.6 -3.4 -7.2 -9.5
8597 -9.0 -5.4 -9.3 -6.2
8598 -3.6 -4.1 -6.6 -12.4
8599 33.8 36.3 45.9 30.3
8600 -6.5 -5.1 -6.2 -10.5
8601 26.8 25.3 38.0 56.2
8602 -4.6 -8.5 -10.0 -6.1
8603 28.5 52.9 43.0 31.2
8604 33.7 29.5 22.2 47.1
8605 -10.3 -8.8 -4.9 -8.9
8606 34.2 46.1 21.4 30.5
8607 36.3 57.2 35.2 47.6
8608 -11.0 -12.7 -4.6 -9.9
8609 -7.7 -10.5 -7.6 -11.1
8610 46.4 26.2 25.9 36.4
8611 33.8 55.4 28.7 34.5
8612 26.4 48.8 54.3 24.0
8613 -9.4 -10.9 -10.8 -4.6
8614 -10.6 -3.9 -8.2 -11.6
8615 37.8 54.5 57.0 20.4
8616 -12.3 -12.8 -6.1 -6.3
8617 45.2 47.5 32.5 43.2
8618 -6.9 -3.7 -6.7 -11.6
8619 -10.0 -4.8 -5.8 -5.7
8620 32.1 44.3 20.6 43.7
8621 -10.0 -12.5 -12.4 -7.9
8622 -3.3 -10.2 -9.4 -5.3
8623 42.7 26.2 44.5 51.9
8624 49.3 34.7 35.8 45.5
8625 -5.8 -3.3 -4.6 -9.7
8626 59.2 42.8 52.3 57.4
8627 43.0 52.2 25.1 38.5
8628 38.9 40.1 34.0 47.4
8629 27.7 58.5 42.0 48.3
8630 -12.5 -7.4 -4.7 -6.4
8631 53.4 57.0 55.4 23.0
8632 36.4 41.0 31.3 40.1
8633 -9.4 -10.8 -9.7 -8.7
8634 -9.0 -9.8 -9.5 -7.8
8635 47.3 27.2 44.3 32.5
8636 -6.4 -5.0 -10.1 -7.3
8637 -3.9 -7.5 -6.6 -10.5
8638 -6.8 -12.8 -8.7 -11.9
8639 -7.6 -9.2 -6.2 -12.7
8640 -10.9 -9.7 -9.7 -4.1
8641 -10.2 -4.3 -3.6 -8.8
8642 -11.2 -8.1 -9.4 -11.5
8643 -12.7 -6.7 -9.9 -3.7
8644 35.0 29.1 35.2 52.8
8645 -9.8 -3.6 -11.7 -5.1
8646 41.6 56.1 55.4 26.3
8647 -8.8 -10.1 -6.5 -4.5
8648 -8.4 -10.3 -6.8 -11.1
8649 -12.9 -7.9 -3.5 -5.8
8650 -4.1 -5.4 -4.9 -10.6
8651 20.1 33.5 31.4 34.5
8652 -6.2 -7.6 -4.5 -6.5
8653 -9.2 -8.6 -6.0 -12.5
8654 -9.5 -10.6 -11.3 -3.4
8655 -4.3 -10.3 -12.1 -4.4
8656 54.7 21.6 25.0 24.7
8657 -5.6 -6.8 -8.2 -11.3
8658 -10.4 -9.5 -10.8 -9.3
8659 -8.4 -8.8 -5.2 -11.3
8660 -11.8 -8.9 -4.4 -3.7
8661 -11.6 -11.3 -4.9 -7.9
8662 -7.1 -8.2 -9.7 -5.0
8663 -10.1 -10.3 -5.1 -6.8
8664 47.5 21.8 26.2 52.8
8665 29.7 45.5 52.0 43.0
8666 -11.8 -9.9 -10.5 -9.3
8667 34.9 25.8 50.0 28.3
8668 -5.4 -11.4 -12.7 -4.8
8669 59.2 22.1 57.7 58.3
8670 32.6 52.3 41.1 27.7
8671 -9.8 -7.0 -7.1 -10.7
8672 -11.1 -10.1 -10.3 -7.2
8673 42.3 45.2 33.3 53.5
8674 58.1 49.8 52.3 46.9
8675 -12.6 -5.0 -6.5 -11.1
8676 37.2 26.0 33.5 52.2
8677 -8.3 -5.4 -6.5 -12.1
8678 53.2 49.4 26.1 45.1
8679 -11.9 -5.6 -5.4 -3.3
8680 58.4 54.8 25.9 30.0
8681 47.4 32.5 20.5 46.9
8682 22.6 51.8 45.4 36.7
8683 -10.0 -3.3 -8.1 -11.6
8684 -7.7 -5.5 -4.8 -5.1
8685 57.8 26.7 23.3 27.9
8686 -7.1 -10.8 -8.7 -7.8
8687 -6.2 -8.6 -4.0 -8.4
8688 21.5 53.8 28.8 34.5
8689 55.4 43.7 38.1 45.9
8690 -5.6 -5.3 -8.2 -5.4
8691 47.1 47.5 27.4 29.3
8692 -5.8 -7.0 -8.0 -4.1
8693 55.3 34.6 38.7 58.8
8694 -12.4 -8.4 -6.8 -10.3
8695 -8.7 -7.2 -3.8 -3.8
8696 -12.5 -5.2 -8.4 -6.6
8697 -10.3 -7.8 -5.5 -8.1
8698 -12.8 -3.4 -4.6 -9.1
8699 39.0 58.7 24.2 43.4
8700 -9.3 -9.1 -7.5 -11.3
8701 25.8 58.7 45.6 36.4
8702 35.5 21.4 22.1 59.7
8703 -12.9 -5.1 -4.4 -5.4
8704 37.8 52.1 37.2 38.0
8705 28.2 36.1 48.7 50.2
8706 -10.1 -10.2 -8.1 -11.1
8707 37.8 29.0 29.5 41.6
8708 -5.7 -4.7 -6.6 -12.6
8709 27.1 31.0 52.7 33.3
8710 -8.8 -12.4 -6.3 -5.4
8711 -3.9 -4.0 -11.7 -8.6
8712 -11.8 -5.5 -4.6 -8.5
8713 -12.7 -9.8 -8.5 -9.0
8714 56.8 41.6 20.3 28.4
8715 -11.6 -11.5 -10.7 -9.2
8716 43.9 47.1 58.4 48.5
8717 51.9 34.8 48.4 53.1
8718 -4.5 -8.2 -10.3 -9.8
8719 -12.6 -5.2 -8.2 -11.1
8720 0.0 0.0 0.0 0.0
8721 -3.5 -4.5 -10.2 -8.4
8722 36.6 42.6 51.5 37.1
8723 -6.6 -8.4 -6.6 -8.4
8724 49.0 30.2 21.4 53.6
8725 34.5 41.8 40.6 58.4
8726 47.3 45.8 35.6 45.4
8727 -5.0 -8.9 -5.1 -9.5
8728 -6.3 -5.1 -9.4 -4.4
8729 -12.1 -10.5 -5.2 -11.2
8730 -9.4 -11.6 -6.9 -4.1
8731 -5.4 -4.1 -6.5 -4.3
8732 55.2 43.0 25.5 21.7
8733 24.4 41.3 57.1 55.2
8734 34.2 51.5 35.0 47.1
8735 -7.8 -6.7 -4.0 -9.9
8736 -5.2 -4.3 -5.5 -7.9
8737 -8.9 -8.3 -3.8 -12.5
8738 -12.3 -10.4 -6.9 -8.6
8739 -4.5 -3.6 -7.0 -4.3
8740 -3.2 -8.0 -5.9 -4.4
8741 57.0 49.9 56.7 45.0
8742 -3.9 -5.5 -8.8 -12.0
8743 -10.9 -3.9 -8.9 -6.2
8744 -3.3 -5.5 -9.2 -5.7
8745 -10.0 -12.1 -7.6 -10.1
8746 52.6 33.9 29.0 33.6
8747 -8.2 -5.2 -4.2 -9.1
8748 37.5 57.7 38.6 42.3
8749 -6.0 -10.3 -5.8 -8.9
8750 37.1 20.6 37.0 32.7
8751 -6.0 -3.6 -11.4 -6.7
8752 22.3 51.9 55.3 30.2
8753 29.7 48.5 43.7 36.2
8754 -10.8 -12.2 -11.4 -3.4
8755 54.1 58.0 50.4 58.0
8756 -7.3 -9.1 -4.5 -11.8
8757 50.3 26.5 26.1 33.8
8758 -6.2 -11.6 -6.6 -7.4
8759 -4.7 -4.1 -12.7 -9.9
8760 30.2 51.5 55.1 21.5
8761 -7.9 -9.1 -10.0 -11.4
8762 -3.9 -10.1 -8.8 -4.1
8763 -12.7 -9.0 -11.6 -11.0
8764 -6.3 -10.4 -9.7 -5.9
8765 -12.9 -11.3 -5.4 -10.8
8766 -12.2 -6.0 -6.5 -12.7
8767 -11.8 -11.5 -4.5 -8.3
8768 -10.5 -7.4 -8.4 -6.5
8769 58.9 20.2 22.0 24.0
8770 -10.4 -4.0 -7.7 -3.7
8771 -12.5 -12.8 -7.5 -4.8
8772 -7.4 -6.3 -8.5 -4.9
8773 -7.7 -4.7 -10.3 -6.8
8774 33.7 45.0 48.3 41.4
8775 -8.9 -9.6 -3.7 -10.4
8776 -11.9 -3.6 -7.2 -9.2
8777 42.6 51.3 48.5 47.3
8778 -6.8 -8.0 -9.6 -10.1
8779 -8.2 -10.3 -12.4 -12.6
8780 26.5 57.6 36.9 26.7
8781 -4.0 -11.2 -3.3 -10.8
8782 -12.9 -7.2 -8.9 -12.1
8783 53.4 47.2 32.2 28.4
8784 -12.0 -4.8 -5.3 -3.7
8785 -12.5 -4.3 -3.7 -5.1
8786 42.9 53.0 30.8 24.7
8787 -12.0 -11.4 -10.7 -9.6
8788 -9.6 -8.2 -4.4 -11.2
8789 58.0 36.1 42.7 47.6
8790 48.9 46.6 45.7 32.6
8791 59.9 42.6 36.5 52.3
8792 -3.7 -8.0 -11.1 -11.5
8793 54.6 20.4 44.1 39.7
8794 26.9 59.7 41.0 47.4
8795 -4.7 -4.1 -3.3 -3.4
8796 49.5 55.8 40.7 53.2
8797 -7.4 -8.2 -12.3 -6.6
8798 54.2 32.4 57.3 54.3
8799 -10.3 -12.6 -6.0 -3.5
8800 50.0 38.2 45.3 56.9
8801 -10.2 -11.1 -3.7 -11.4
8802 -3.4 -3.8 -8.2 -6.4
8803 -8.9 -4.4 -3.4 -9.0
8804 -3.3 -4.4 -11.1 -4.7
8805 32.4 20.2 45.1 26.8
8806 40.8 38.0 21.6 21.3
8807 47.3 44.1 26.6 28.6
8808 -10.1 -9.6 -10.5 -11.5
8809 52.1 43.8 26.9 42.9
8810 -12.7 -5.9 -5.7 -5.3
8811 -9.1 -10.2 -3.2 -4.5
8812 -7.8 -6.3 -6.9 -6.3
8813 -8.3 -10.8 -6.7 -9.3
8814 35.5 33.3 57.2 20.1
8815 -10.6 -9.3 -9.3 -4.5
8816 -4.8 -8.2 -8.2 -6.0
8817 36.3 56.5 37.3 53.0
8818 43.9 47.1 50.9 23.9
8819 -5.6 -11.2 -10.0 -7.0
8820 -7.1 -3.9 -12.1 -3.5
8821 -5.8 -11.2 -5.5 -8.3
8822 39.4 55.0 39.4 29.7
8823 30.2 58.7 42.2 48.2
8824 47.2 44.8 25.7 45.2
8825 45.6 42.3 42.9 49.5
8826 -3.7 -11.4 -5.6 -10.7
8827 36.1 55.3 49.1 22.9
8828 52.3 52.1 22.0 56.3
8829 -4.8 -4.2 -12.2 -10.1
8830 -5.1 -10.3 -7.5 -3.6
8831 -8.8 -4.9 -5.2 -10.2
8832 51.4 34.6 29.5 20.1
8833 -10.7 -4.7 -12.0 -7.1
8834 -5.6 -8.3 -4.5 -11.3
8835 -9.3 -3.6 -10.5 -7.8
8836 -9.7 -8.5 -8.2 -8.0
8837 30.1 40.1 45.4 21.6
8838 -4.2 -10.8 -7.8 -5.1
8839 49.5 44.5 40.0 52.3
8840 -12.9 -6.2 -8.8 -12.2
8841 55.4 51.4 21.1 44.7
8842 -7.2 -12.3 -7.2 -10.8
8843 -9.9 -10.8 -10.6 -11.7
8844 -4.7 -9.9 -4.0 -12.0
8845 58.3 44.8 37.0 24.4
8846 -5.4 -3.9 -5.1 -11.2
8847 21.2 45.0 23.8 48.5
8848 30.7 35.0 37.2 29.0
8849 -5.3 -11.8 -11.5 -7.7
8850 32.9 39.2 49.8 20.7
8851 31.5 41.5 42.8 36.0
8852 28.3 46.1 40.7 58.7
8853 -6.6 -4.4 -10.9 -6.9
8854 48.3 27.7 23.1 20.2
8855 -7.9 -9.1 -7.2 -6.7
8856 22.5 54.1 55.3 31.9
8857 -11.9 -12.6 -4.3 -5.9
8858 25.1 30.7 53.6 36.8
8859 31.2 58.6 54.8 53.1
8860 45.7 50.7 38.9 50.9
8861 21.2 43.6 51.1 55.2
8862 34.3 49.6 24.4 43.7
8863 45.9 32.3 53.8 35.9
8864 -5.6 -3.9 -4.4 -10.7
8865 -11.6 -7.7 -12.3 -5.1
8866 -9.2 -11.2 -6.9 -3.6
8867 -9.1 -8.5 -7.2 -5.0
8868 57.4 34.1 48.5 26.3
8869 25.9 44.3 55.8 29.9
8870 -6.9 -7.3 -7.4 -8.0
8871 -10.9 -6.8 -9.5 -5.5
8872 56.4 31.2 28.3 36.4
8873 -4.4 -4.0 -9.0 -6.1
8874 -5.9 -5.1 -7.8 -6.0
8875 -7.2 -4.0 -9.3 -11.6
8876 -8.5 -9.8 -8.5 -5.3
8877 -5.5 -12.1 -8.8 -10.7
8878 -11.3 -7.3 -4.2 -10.4
8879 -9.0 -4.7 -9.0 -11.5
8880 -5.0 -11.5 -3.3 -8.8
8881 -12.5 -9.6 -5.1 -4.1
8882 -9.3 -11.1 -3.4 -7.4
8883 -10.3 -9.8 -4.4 -7.3
8884 46.9 35.5 45.0 38.3
8885 59.9 38.3 28.8 48.5
8886 -9.4 -7.7 -10.4 -4.0
8887 31.7 40.7 45.0 22.4
8888 -11.3 -5.3 -7.3 -4.8
8889 -7.1 -7.8 -8.7 -11.3
8890 -7.2 -4.4 -7.3 -11.1
8891 35.9 58.7 22.5 30.2
8892 -12.9 -4.6 -9.3 -11.9
8893 56.2 40.5 46.5 32.9
8894 -11.5 -4.5 -5.5 -8.1
8895 -9.6 -8.2 -4.1 -12.1
8896 -11.4 -5.4 -10.9 -5.0
8897 -4.3 -5.5 -10.7 -12.6
8898 34.8 42.5 38.4 24.3
8899 -7.5 -9.5 -7.3 -9.6
8900 38.4 25.5 54.0 40.2
8901 48.4 39.9 59.5 51.0
8902 -8.3 -4.4 -11.7 -8.4
8903 26.8 57.7 52.0 57.6
8904 26.8 25.3 20.7 25.2
8905 52.0 27.4 41.3 30.1
8906 -10.6 -10.1 -7.8 -4.2
8907 -3.9 -10.5 -4.2 -9.4
8908 49.0 24.3 53.9 49.2
8909 -5.7 -10.2 -5.8 -6.5
8910 56.3 30.0 40.1 29.9
8911 53.7 55.3 21.9 57.1
8912 -12.1 -4.8 -3.2 -9.9
8913 29.6 21.0 40.8 23.8
8914 -11.2 -11.3 -11.5 -12.7
8915 -11.0 -7.2 -12.2 -10.7
8916 -10.2 -4.9 -5.0 -4.8
8917 -4.1 -12.2 -4.1 -8.4
8918 -5.8 -6.2 -6.0 -7.6
8919 -9.9 -7.6 -10.5 -8.1
8920 58.3 57.1 41.6 21.9
8921 -10.5 -7.4 -7.0 -4.8
8922 33.5 47.0 41.8 21.2
8923 42.8 59.6 34.5 52.2
8924 -6.4 -7.2 -10.2 -12.4
8925 -5.0 -10.8 -5.7 -11.4
8926 21.4 37.5 25.3 43.7
8927 -10.5 -12.8 -4.7 -6.8
8928 -11.5 -12.0 -6.9 -4.0
8929 -6.1 -10.8 -10.4 -3.9
8930 -9.5 -5.7 -11.5 -3.5
8931 30.3 35.8 22.7 54.1
8932 -9.7 -12.7 -5.5 -3.4
8933 32.4 45.5 58.1 43.0
8934 -3.5 -12.8 -3.5 -12.2
8935 -4.4 -8.7 -6.6 -10.3
8936 30.9 41.4 32.6 26.9
8937 -11.9 -11.9 -12.2 -5.9
8938 -9.9 -3.9 -5.0 -11.7
8939 0.0 0.0 0.0 0.0
8940 56.4 33.7 29.9 39.4
8941 -7.1 -3.9 -9.7 -7.4
8942 -7.1 -6.2 -4.6 -9.1
8943 -9.2 -5.8 -7.9 -11.7
8944 -7.5 -8.5 -6.2 -6.2
8945 47.2 58.3 45.8 26.2
8946 -4.6 -7.9 -10.7 -5.3
8947 -10.2 -5.4 -9.7 -7.8
8948 -11.9 -9.8 -5.6 -6.6
8949 -9.3 -11.8 -10.8 -4.2
8950 38.5 27.0 27.9 40.2
8951 32.9 38.2 27.1 56.3
8952 -3.5 -8.1 -5.5 -7.0
8953 -4.7 -10.3 -10.4 -9.6
8954 -3.4 -10.9 -3.4 -5.0
8955 -11.0 -10.9 -5.7 -7.3
8956 27.0 42.6 34.5 47.8
8957 -5.6 -10.9 -12.1 -10.8
8958 54.7 42.8 36.9 39.7
8959 -4.2 -10.7 -11.8 -12.1
8960 -6.5 -9.7 -5.8 -8.3
8961 33.3 31.9 42.8 32.4
8962 -4.1 -10.9 -5.0 -5.9
8963 -3.8 -7.5 -5.2 -10.9
8964 -7.3 -8.2 -10.4 -3.5
8965 -5.7 -9.0 -9.3 -11.8
8966 31.3 25.5 42.3 59.9
8967 40.1 20.6 58.4 21.2
8968 -10.7 -11.0 -12.1 -9.6
8969 0.0 0.0 0.0 0.0
8970 -7.9 -7.4 -3.9 -11.9
8971 -8.0 -10.3 -4.1 -9.7
8972 -9.8 -6.2 -12.7 -8.6
8973 -12.9 -9.9 -3.5 -7.4
8974 24.5 39.6 34.4 36.7
8975 -8.4 -12.0 -5.4 -3.3
8976 -8.2 -5.5 -8.9 -7.8
8977 -11.7 -12.7 -7.3 -11.4
8978 -12.1 -12.4 -8.2 -3.9
8979 -4.6 -10.1 -4.3 -12.2
8980 55.9 54.6 46.7 52.2
8981 39.4 36.8 24.0 44.8
8982 -3.4 -9.4 -4.4 -4.2
8983 -11.3 -11.7 -12.4 -7.2
8984 -6.9 -11.4 -5.0 -10.1
8985 40.6 53.7 36.6 37.8
8986 -6.4 -9.6 -10.2 -5.1
8987 -5.4 -9.8 -4.8 -3.7
8988 24.8 29.5 42.1 32.1
8989 44.1 30.6 25.6 56.6
8990 -3.9 -5.4 -6.3 -5.5
8991 22.8 43.2 44.6 52.8
8992 -10.6 -5.8 -3.4 -3.6
8993 34.7 50.4 33.4 54.3
8994 -5.4 -4.0 -9.0 -6.6
8995 -3.9 -8.9 -7.5 -8.3
8996 55.1 28.1 40.3 43.7
8997 29.1 55.6 46.1 55.7
8998 32.2 47.3 28.3 27.2
8999 -5.0 -10.2 -10.2 -7.9
9000 -10.8 -9.7 -4.9 -8.8
9001 -10.0 -5.1 -9.2 -12.6
9002 39.4 38.5 59.1 31.7
9003 33.7 53.9 43.5 45.4
9004 -8.8 -5.5 -11.4 -11.2
9005 -11.6 -6.7 -5.9 -9.2
9006 26.4 37.9 25.4 25.4
9007 -12.9 -5.0 -11.6 -7.6
9008 55.8 33.5 37.5 38.8
9009 -11.5 -11.1 -7.8 -9.9
9010 -9.5 -6.0 -6.8 -8.2
9011 -4.4 -8.9 -7.0 -11.3
9012 -10.0 -12.6 -6.8 -10.8
9013 56.5 51.8 54.8 32.2
9014 40.4 47.1 57.4 43.1
9015 -11.5 -9.2 -9.0 -3.4
9016 -3.7 -9.7 -8.4 -9.0
9017 -7.8 -10.5 -8.1 -7.6
9018 -12.4 -9.6 -8.3 -5.4
9019 54.2 56.3 20.4 43.3
9020 34.5 38.4 21.3 52.7
9021 38.0 41.8 40.7 58.4
9022 -12.6 -12.3 -9.1 -4.4
9023 -4.7 -6.8 -11.8 -7.1
9024 37.0 40.6 22.1 27.0
9025 40.8 37.7 43.1 30.4
9026 60.0 49.7 27.5 29.3
9027 -12.8 -9.0 -6.0 -4.2
9028 -12.5 -11.5 -11.9 -3.5
9029 -10.0 -3.4 -6.2 -10.3
9030 -5.4 -9.1 -7.8 -10.4
9031 35.5 53.7 25.9 33.5
9032 31.8 26.8 50.0 55.5
9033 24.0 29.9 27.0 40.7
9034 -6.0 -10.8 -12.4 -3.3
9035 23.1 21.4 28.2 20.5
9036 56.7 23.9 23.6 47.3
9037 40.1 55.0 35.0 56.3
9038 37.8 48.1 59.5 44.3
9039 30.4 51.1 41.2 52.8
9040 -10.3 -3.8 -6.7 -8.7
9041 38.6 50.0 46.0 27.9
9042 -8.6 -7.6 -8.8 -5.4
9043 38.7 42.4 47.6 54.7
9044 -6.1 -3.9 -9.9 -7.5
9045 -4.4 -3.9 -5.4 -3.5
9046 -12.9 -9.1 -3.8 -7.2
9047 23.8 20.1 20.6 48.4
9048 35.3 27.4 41.0 38.4
9049 51.2 36.4 44.7 59.4
9050 57.3 30.9 22.9 47.9
9051 -4.7 -8.0 -6.9 -4.1
9052 -11.6 -11.1 -8.2 -7.8
9053 26.6 20.8 52.8 20.9
9054 24.0 49.6 36.6 54.3
9055 46.9 54.7 49.2 48.1
9056 43.0 54.6 40.8 22.4
9057 -10.7 -11.6 -3.6 -8.3
9058 -8.6 -4.5 -6.0 -11.0
9059 41.3 44.3 24.0 44.0
9060 -7.3 -8.8 -9.5 -6.2
9061 42.4 59.1 26.4 37.8
9062 -3.3 -5.0 -8.5 -5.7
9063 -7.1 -12.5 -9.2 -6.7
9064 -8.1 -6.3 -12.6 -7.7
9065 34.7 51.9 41.8 24.7
9066 30.3 32.7 49.5 26.9
9067 -6.6 -6.9 -10.0 -10.6
9068 36.1 25.3 55.3 32.2
9069 -4.8 -4.5 -5.5 -9.8
9070 -5.4 -6.6 -8.6 -6.4
9071 -6.6 -7.7 -11.2 -5.9
9072 -5.2 -7.0 -5.5 -5.5
9073 52.6 22.2 58.0 45.6
9074 -12.9 -10.7 -10.6 -12.3
9075 -8.0 -9.0 -3.2 -4.7
9076 36.1 35.5 40.1 39.2
9077 35.8 25.1 43.0 35.9
9078 -9.8 -6.9 -12.7 -12.3
9079 -8.5 -10.1 -7.2 -4.6
9080 31.4 31.2 23.4 26.1
9081 53.3 47.5 42.7 55.2
9082 -11.1 -10.0 -9.1 -3.9
9083 53.1 56.7 22.3 37.2
9084 50.6 38.2 58.8 56.5
9085 42.9 38.6 25.0 42.7
9086 -9.7 -8.9 -5.9 -8.1
9087 50.0 46.4 37.4 27.6
9088 58.5 39.6 55.5 47.0
9089 45.5 48.0 37.3 51.5
9090 45.6 32.3 27.2 45.3
9091 -12.4 -10.7 -9.6 -7.3
9092 39.4 55.9 35.3 26.6
9093 -7.6 -5.4 -8.8 -12.5
9094 33.3 54.7 40.5 52.9
9095 50.1 35.1 45.7 43.1
9096 -10.0 -4.0 -6.4 -11.9
9097 -12.0 -5.1 -11.7 -5.5
9098 29.3 20.8 44.2 27.5
9099 -12.9 -11.3 -8.8 -8.2
9100 35.6 21.4 56.8 24.7
9101 39.4 28.6 36.5 36.5
9102 -4.9 -7.9 -10.7 -11.6
9103 -5.9 -8.7 -11.6 -11.9
9104 -6.3 -9.3 -12.8 -9.8
9105 -8.3 -5.7 -12.5 -5.2
9106 -4.8 -3.5 -6.2 -11.2
9107 -4.1 -9.6 -3.6 -9.4
9108 -3.6 -12.6 -9.0 -10.8
9109 -5.3 -10.7 -10.8 -7.5
9110 -5.9 -12.0 -5.6 -3.4
9111 -6.8 -5.3 -6.7 -9.3
9112 -7.9 -5.3 -8.1 -8.6
9113 -6.2 -10.9 -3.8 -7.5
9114 -4.2 -7.3 -8.0 -3.8
9115 -3.9 -10.9 -6.8 -3.2
9116 -7.1 -11.5 -8.0 -8.3
9117 25.2 22.4 49.1 39.5
9118 -12.4 -12.0 -5.8 -11.4
9119 37.8 46.4 37.7 47.7
9120 -5.0 -4.5 -12.6 -10.3
9121 36.0 36.3 50.6 57.9
9122 -7.9 -11.3 -5.0 -6.7
9123 23.1 27.9 24.3 41.5
9124 46.9 48.8 37.4 37.9
9125 -4.5 -3.9 -9.3 -4.2
9126 -11.1 -6.0 -7.5 -10.3
9127 55.7 35.9 53.9 31.4
9128 55.6 34.6 40.5 23.1
9129 -7.7 -5.9 -10.4 -9.8
9130 23.4 35.1 54.4 56.4
9131 59.9 35.0 59.6 48.8
9132 -4.0 -10.5 -10.7 -11.8
9133 36.3 48.4 20.1 51.4
9134 -6.0 -8.1 -8.8 -9.3
9135 -7.9 -3.8 -12.3 -11.9
9136 -6.6 -7.7 -4.6 -7.7
9137 -3.6 -7.5 -6.5 -8.6
9138 35.0 50.7 38.1 58.4
9139 49.1 27.6 29.0 22.4
9140 55.8 29.6 33.5 54.6
9141 -6.4 -9.6 -4.0 -7.4
9142 33.9 25.8 44.6 28.6
9143 -9.3 -8.4 -10.7 -8.2
9144 26.1 47.8 20.2 38.6
9145 -7.9 -12.4 -4.7 -6.6
9146 -9.8 -11.0 -11.5 -10.4
9147 -11.1 -8.0 -7.3 -10.3
9148 -11.5 -5.5 -6.5 -11.0
9149 -7.1 -7.3 -7.9 -9.9
9150 -10.4 -10.5 -12.8 -4.3
9151 -11.6 -7.8 -10.1 -6.6
9152 -4.9 -3.8 -8.1 -3.3
9153 -8.9 -8.4 -3.5 -5.7
9154 -12.3 -4.2 -6.5 -11.4
9155 50.3 52.7 27.2 39.3
9156 -6.2 -6.3 -5.0 -12.6
9157 32.2 45.3 29.2 50.4
9158 -3.9 -7.9 -11.9 -9.3
9159 -10.3 -11.5 -4.1 -11.9
9160 -10.7 -12.3 -8.9 -3.8
9161 -10.8 -11.2 -9.1 -5.0
9162 -4.6 -8.3 -8.3 -9.1
9163 -4.3 -11.0 -3.9 -4.1
9164 33.6 24.7 22.3 30.6
9165 -11.9 -7.8 -4.5 -7.6
9166 44.8 24.4 41.8 26.0
9167 45.1 29.1 42.0 48.7
9168 -5.3 -10.8 -6.5 -3.4
9169 -4.5 -12.7 -8.1 -7.5
9170 -4.4 -3.7 -10.7 -8.8
9171 -11.2 -9.5 -12.2 -7.2
9172 47.8 38.5 34.6 56.4
9173 27.0 36.9 40.6 49.9
9174 -6.4 -6.2 -3.6 -9.0
9175 -4.9 -12.8 -10.5 -5.0
9176 -6.2 -7.4 -5.3 -12.3
9177 24.1 56.5 41.2 57.9
9178 -9.6 -5.6 -11.6 -11.0
9179 -11.1 -11.3 -9.3 -4.5
9180 -4.2 -9.4 -12.5 -7.2
9181 -12.5 -9.4 -11.4 -9.4
9182 20.3 35.6 34.3 36.6
9183 -3.9 -10.5 -10.7 -4.2
9184 25.4 31.4 28.9 53.9
9185 -8.7 -5.4 -6.7 -12.1
9186 53.6 24.0 47.5 53.7
9187 58.7 46.3 44.4 44.5
9188 -3.9 -8.0 -5.1 -5.9
9189 22.8 44.8 28.2 40.9
9190 50.6 26.2 49.3 27.2
9191 56.4 53.4 55.7 21.4
9192 -8.9 -8.0 -12.6 -5.3
9193 32.3 51.6 40.0 26.1
9194 22.7 48.4 35.4 25.2
9195 -3.6 -7.3 -3.6 -8.0
9196 53.5 56.3 31.2 48.5
9197 -10.6 -10.1 -6.1 -5.2
9198 58.5 22.5 26.6 51.2
9199 -12.0 -10.2 -5.7 -3.4
9200 30.7 46.1 30.5 24.2
9201 -5.1 -5.1 -9.6 -5.2
9202 47.6 27.1 58.1 20.3
9203 32.0 41.8 54.5 51.3
9204 -10.0 -4.0 -7.3 -6.0
9205 -8.2 -10.3 -11.9 -10.1
9206 -9.7 -11.0 -8.9 -11.3
9207 40.2 56.6 57.1 30.6
9208 43.1 28.3 23.1 46.1
9209 45.0 55.1 24.3 55.1
9210 -8.7 -7.2 -10.2 -4.4
9211 -3.8 -5.3 -4.1 -7.7
9212 -9.3 -9.9 -9.5 -7.8
9213 27.0 58.2 49.1 59.0
9214 -10.1 -5.5 -10.7 -10.9
9215 46.1 28.0 30.3 47.3
9216 35.5 44.9 51.3 57.7
9217 -11.7 -11.5 -6.2 -7.0
9218 38.1 35.6 54.0 39.7
9219 -11.0 -7.7 -3.8 -8.7
9220 -11.0 -12.8 -9.9 -7.0
9221 -7.6 -11.0 -6.9 -7.3
9222 53.5 22.6 32.3 49.7
9223 25.9 31.1 44.0 30.2
9224 28.4 32.2 58.9 30.3
9225 -9.9 -3.2 -4.7 -4.5
9226 -9.5 -8.3 -6.7 -3.3
9227 -6.5 -5.2 -7.4 -11.5
9228 49.7 51.7 51.4 33.8
9229 -4.6 -12.1 -9.5 -8.6
9230 37.2 35.6 22.3 39.5
9231 -11.0 -10.2 -10.6 -5.1
9232 -7.1 -7.7 -11.9 -5.7
9233 -11.6 -5.8 -6.3 -3.3
9234 -11.4 -12.6 -12.1 -11.3
9235 50.0 38.2 22.3 38.0
9236 51.2 33.6 53.1 50.7
9237 43.5 26.4 38.1 37.7
9238 -4.1 -11.5 -10.7 -10.2
9239 -12.9 -10.9 -11.4 -7.7
9240 50.7 42.4 59.6 35.1
9241 25.8 41.9 54.0 22.4
9242 -11.2 -10.1 -10.8 -7.4
9243 45.9 46.4 46.1 42.2
9244 41.8 25.6 31.7 38.9
9245 -9.0 -3.2 -12.0 -5.2
9246 -6.2 -8.9 -12.0 -11.3
9247 54.9 49.7 23.8 20.0
9248 -11.6 -5.5 -8.2 -5.2
9249 -4.7 -11.8 -4.1 -8.2
9250 -7.6 -12.3 -9.5 -9.5
9251 -5.4 -11.9 -12.0 -11.7
9252 -7.0 -11.5 -6.6 -4.9
9253 22.6 42.9 53.4 58.0
9254 25.4 44.6 36.1 59.2
9255 42.6 41.5 29.4 23.8
9256 32.5 37.2 28.5 20.5
9257 -11.6 -5.4 -6.2 -7.9
9258 -6.1 -10.4 -3.2 -7.8
9259 -10.5 -11.2 -10.7 -5.5
9260 -6.0 -3.7 -8.4 -9.5
9261 -8.0 -4.4 -12.5 -4.0
9262 -8.3 -7.7 -5.2 -9.9
9263 34.0 38.8 46.0 27.3
9264 50.9 57.6 26.8 46.4
9265 -3.5 -8.8 -4.2 -10.5
9266 -12.2 -6.1 -3.6 -6.4
9267 46.2 25.9 33.0 51.2
9268 34.7 36.0 25.1 49.1
9269 -8.7 -3.6 -12.2 -7.7
9270 -9.3 -7.9 -5.1 -3.6
9271 56.3 56.5 59.6 51.8
9272 -8.3 -8.8 -9.4 -10.8
9273 -7.4 -8.4 -9.7 -7.5
9274 44.3 22.9 22.3 27.6
9275 -7.3 -7.5 -12.6 -8.0
9276 59.8 45.7 50.3 29.1
9277 -9.3 -9.4 -11.1 -7.4
9278 25.7 21.7 31.4 45.4
9279 -7.2 -8.1 -4.0 -11.6
9280 -10.7 -4.7 -4.9 -10.5
9281 -9.5 -6.5 -9.5 -6.0
9282 -9.2 -4.9 -10.8 -8.3
9283 -8.5 -10.9 -9.7 -6.6
9284 -4.7 -8.3 -8.5 -12.7
9285 -4.9 -8.5 -8.0 -11.2
9286 -8.7 -6.6 -10.0 -3.8
9287 -8.5 -8.9 -5.7 -5.0
9288 -6.0 -11.7 -11.5 -10.3
9289 48.0 21.2 41.2 36.9
9290 -5.0 -6.1 -6.5 -4.9
9291 -8.3 -10.5 -4.6 -12.6
9292 -7.6 -8.5 -4.0 -6.9
9293 -9.7 -10.3 -4.1 -5.7
9294 -9.4 -7.8 -5.6 -5.0
9295 51.0 20.4 25.8 29.6
9296 -11.4 -7.0 -3.4 -6.8
9297 52.3 53.0 26.3 56.2
9298 55.9 45.2 38.8 34.3
9299 42.8 40.1 37.1 50.3
9300 -6.8 -6.9 -11.3 -12.0
9301 -12.3 -3.4 -10.9 -11.5
9302 -11.9 -3.3 -9.5 -10.5
9303 -9.7 -6.3 -10.2 -5.6
9304 51.1 36.2 47.2 24.9
9305 52.5 20.4 45.1 25.8
9306 54.0 27.7 56.2 45.6
9307 -9.3 -10.2 -10.0 -12.5
9308 31.7 24.3 49.7 30.9
9309 -4.6 -4.8 -8.9 -4.7
9310 -12.9 -5.7 -11.8 -4.0
9311 -8.7 -4.8 -5.2 -12.3
9312 -8.0 -7.3 -8.4 -7.0
9313 34.1 48.5 28.0 24.9
9314 53.8 58.1 41.1 28.4
9315 46.4 59.0 32.4 34.0
9316 -5.4 -7.4 -5.8 -8.2
9317 35.9 21.4 42.4 45.7
9318 -6.4 -8.0 -9.2 -6.5
9319 -4.2 -10.2 -11.1 -12.5
9320 -4.1 -12.7 -10.1 -5.6
9321 -3.5 -11.0 -6.7 -10.4
9322 -8.8 -4.0 -7.3 -4.1
9323 -5.5 -8.4 -6.2 -12.0
9324 20.6 26.3 49.5 29.3
9325 52.0 21.4 45.2 59.2
9326 27.7 25.9 23.0 38.2
9327 -8.1 -11.8 -4.4 -5.8
9328 -12.6 -10.3 -4.2 -9.1
9329 -10.8 -9.2 -11.0 -11.4
9330 -12.4 -8.2 -4.6 -12.1
9331 22.3 45.7 46.1 25.1
9332 -12.2 -8.0 -10.8 -11.4
9333 -5.0 -8.5 -3.5 -7.4
9334 -5.3 -11.6 -6.1 -9.9
9335 -11.5 -4.4 -7.4 -4.7
9336 46.3 34.2 34.4 38.9
9337 46.3 25.4 48.0 25.9
9338 23.1 28.9 51.8 33.2
9339 -11.5 -3.4 -11.2 -9.4
9340 -3.7 -5.2 -9.7 -10.8
9341 -10.1 -10.5 -8.2 -6.1
9342 52.7 40.7 39.6 59.8
9343 42.2 46.8 37.7 38.6
9344 -10.7 -5.2 -3.3 -7.6
9345 35.8 35.7 32.3 37.6
9346 -11.7 -3.6 -9.6 -9.1
9347 -6.4 -5.6 -8.5 -8.3
9348 48.0 58.9 24.4 59.4
9349 -9.3 -4.9 -4.3 -4.3
9350 -4.1 -4.7 -6.3 -5.8
9351 34.2 51.7 21.3 28.2
9352 33.8 43.3 20.8 43.5
9353 43.5 40.7 42.4 27.8
9354 -4.2 -12.2 -9.8 -5.7
9355 44.5 55.5 28.3 51.2
9356 -8.2 -10.0 -9.9 -10.4
9357 37.7 52.6 51.1 56.3
9358 -6.4 -5.9 -3.3 -10.5
9359 52.7 25.6 57.3 29.4
9360 -6.6 -4.1 -10.4 -9.6
9361 -6.1 -4.2 -9.2 -12.2
9362 -12.1 -7.1 -10.4 -4.6
9363 -7.8 -5.5 -4.2 -10.2
9364 -11.6 -7.0 -10.6 -5.1
9365 -12.7 -12.6 -3.9 -10.3
9366 53.0 35.4 38.0 30.3
9367 -6.0 -4.4 -7.6 -7.4
9368 -11.5 -8.4 -5.9 -7.6
9369 -4.5 -7.8 -10.1 -5.8
9370 -12.7 -10.3 -12.6 -9.2
9371 -5.5 -4.6 -7.0 -6.4
9372 -4.4 -6.4 -8.1 -5.0
9373 -6.1 -8.8 -4.5 -8.1
9374 -4.1 -8.3 -7.5 -11.8
9375 -11.5 -5.7 -4.5 -5.3
9376 -7.2 -9.8 -7.8 -11.5
9377 -11.0 -6.3 -5.7 -3.5
9378 52.5 28.6 47.8 25.0
9379 -10.3 -8.2 -11.8 -9.1
9380 -8.4 -12.1 -3.3 -3.5
9381 -7.9 -3.5 -10.1 -4.7
9382 -12.6 -7.3 -7.9 -9.2
9383 45.8 21.0 29.0 50.4
9384 -3.7 -9.3 -6.1 -12.3
9385 22.5 25.2 24.5 51.6
9386 -5.8 -10.3 -9.0 -6.1
9387 57.2 21.4 37.3 50.6
9388 51.2 50.6 34.7 59.0
9389 -4.4 -7.0 -5.7 -4.9
9390 -9.3 -4.0 -11.2 -5.1
9391 -9.4 -8.0 -7.8 -8.1
9392 23.8 26.6 38.1 24.3
9393 53.1 32.8 42.3 22.7
9394 -12.6 -9.4 -11.6 -5.2
9395 -3.6 -10.0 -10.9 -3.2
9396 58.0 31.2 20.9 26.1
9397 22.2 40.6 25.9 42.7
9398 49.6 39.0 20.5 46.9
9399 -4.8 -7.1 -6.8 -7.6
9400 -12.5 -3.5 -8.0 -7.4
9401 29.3 43.3 43.4 42.0
9402 -11.6 -5.6 -12.7 -12.3
9403 -10.1 -3.5 -10.2 -6.4
9404 47.8 25.6 35.2 48.6
9405 40.4 51.3 49.5 49.3
9406 38.4 47.9 52.6 44.0
9407 -9.5 -7.4 -10.1 -6.5
9408 -7.2 -9.4 -5.5 -12.1
9409 36.3 50.7 54.7 51.2
9410 -4.4 -4.9 -3.8 -12.4
9411 -6.6 -3.5 -7.3 -8.4
9412 35.8 20.5 23.2 54.1
9413 -4.3 -9.3 -8.1 -10.9
9414 -5.8 -10.3 -5.2 -9.2
9415 -8.3 -11.7 -10.2 -9.8
9416 -12.2 -6.1 -10.3 -12.5
9417 -12.5 -7.5 -6.1 -7.3
9418 -8.2 -3.4 -10.8 -3.5
9419 38.8 52.1 33.8 50.2
9420 -8.2 -3.4 -10.3 -11.3
9421 -5.1 -5.9 -11.1 -11.8
9422 27.1 24.8 23.3 25.9
9423 38.0 41.3 48.3 30.0
9424 23.3 33.7 37.8 24.6
9425 -7.6 -5.8 -11.8 -5.4
9426 49.0 26.2 46.6 36.4
9427 31.0 57.0 54.0 31.4
9428 20.9 22.7 59.2 45.8
9429 22.4 29.9 24.8 44.6
9430 37.3 49.1 57.6 39.9
9431 20.6 29.9 59.6 26.4
9432 -4.6 -4.9 -6.0 -10.5
9433 -7.1 -8.7 -5.9 -10.3
9434 -8.8 -5.3 -10.0 -10.1
9435 -10.5 -12.7 -11.3 -9.4
9436 59.1 45.5 48.7 41.8
9437 -10.2 -11.2 -8.3 -5.0
9438 -4.8 -11.2 -11.2 -11.5
9439 -9.0 -12.0 -6.3 -8.2
9440 58.5 21.6 33.9 48.5
9441 27.3 42.6 46.1 42.8
9442 39.5 24.1 59.8 48.7
9443 -6.5 -11.7 -11.2 -8.2
9444 -9.1 -8.3 -11.4 -4.3
9445 -4.9 -5.4 -7.8 -11.1
9446 -10.0 -9.5 -11.6 -12.2
9447 -12.2 -6.9 -3.7 -6.8
9448 29.6 39.0 27.7 36.0
9449 55.4 30.8 47.9 36.3
9450 -11.1 -8.5 -5.1 -6.9
9451 51.6 41.7 56.7 36.8
9452 36.0 43.9 41.5 27.9
9453 48.4 20.7 37.1 42.4
9454 47.9 30.1 49.3 38.8
9455 -5.8 -11.9 -6.2 -10.6
9456 28.0 33.2 41.9 47.2
9457 -9.2 -12.1 -4.2 -3.6
9458 52.1 30.6 37.9 54.8
9459 -6.0 -9.0 -11.8 -6.9
9460 -7.2 -12.2 -7.6 -5.6
9461 41.2 28.0 40.8 39.9
9462 -7.4 -9.9 -5.7 -3.7
9463 -4.9 -3.5 -6.6 -4.8
9464 25.3 39.5 32.8 25.8
9465 -8.2 -7.3 -11.7 -4.9
9466 34.4 42.5 55.9 26.0
9467 25.9 31.1 34.7 20.7
9468 -6.6 -3.6 -6.4 -10.2
9469 -9.6 -4.2 -10.0 -8.7
9470 -4.7 -8.5 -11.5 -5.6
9471 -8.7 -6.4 -6.4 -5.8
9472 -11.8 -11.4 -11.3 -9.8
9473 55.9 25.2 27.3 54.9
9474 -6.9 -4.8 -7.7 -11.5
9475 35.6 41.0 30.9 46.5
9476 37.9 45.0 20.2 54.0
9477 42.2 42.0 21.7 26.0
9478 41.0 32.3 36.6 37.2
9479 -9.6 -8.8 -9.9 -6.9
9480 40.4 24.7 25.7 30.7
9481 23.6 58.2 54.6 40.5
9482 -11.7 -5.3 -10.7 -5.5
9483 -10.8 -6.9 -3.4 -11.9
9484 43.2 55.7 48.9 57.9
9485 -10.8 -9.5 -11.8 -11.2
9486 31.8 37.4 51.0 52.5
9487 -6.2 -11.4 -6.6 -11.5
9488 -6.7 -6.6 -8.8 -12.4
9489 26.7 24.1 31.7 20.4
9490 -9.3 -4.8 -12.5 -8.0
9491 -5.1 -10.0 -4.4 -6.3
9492 -5.3 -7.3 -7.5 -11.6
9493 -4.9 -3.3 -11.6 -3.3
9494 -10.1 -4.4 -9.7 -6.2
9495 46.2 24.7 52.2 36.9
9496 -10.2 -11.8 -5.7 -11.8
9497 53.6 32.9 57.4 57.0
9498 -4.3 -10.5 -12.5 -4.7
9499 -5.7 -11.9 -6.9 -4.4
9500 49.5 24.7 32.5 37.2
9501 -5.1 -6.3 -9.1 -10.8
9502 38.6 59.3 20.6 43.2
9503 53.2 45.0 56.2 41.0
9504 40.0 21.1 21.2 33.4
9505 -8.0 -9.9 -10.5 -9.5
9506 -5.0 -6.7 -6.7 -6.6
9507 -11.9 -12.4 -3.3 -7.2
9508 -8.5 -8.0 -3.9 -5.4
9509 -12.5 -5.7 -7.7 -11.1
9510 34.5 42.6 20.8 36.5
9511 -9.9 -5.9 -11.3 -6.1
9512 -5.4 -7.4 -4.8 -7.3
9513 27.1 41.2 47.0 42.8
9514 -6.1 -10.4 -4.2 -8.0
9515 43.6 28.6 28.4 44.3
9516 36.3 54.7 21.8 34.5
9517 26.4 57.9 49.0 35.9
9518 -10.9 -11.1 -6.4 -10.5
9519 31.2 25.8 32.3 48.1
9520 30.5 35.9 32.8 50.1
9521 -9.7 -4.8 -7.4 -12.3
9522 -9.3 -4.4 -7.9 -5.6
9523 40.5 53.5 56.6 48.9
9524 -11.3 -12.4 -4.7 -3.4
9525 48.7 47.8 45.3 33.1
9526 44.8 30.1 23.8 56.6
9527 27.8 23.2 20.0 49.3
9528 -3.8 -6.4 -11.0 -10.1
9529 -4.6 -6.0 -12.1 -11.0
9530 -6.8 -3.4 -4.8 -6.2
9531 -7.3 -4.3 -9.1 -11.7
9532 -7.8 -6.1 -6.5 -4.5
9533 -6.1 -6.0 -12.5 -7.0
9534 33.1 37.6 59.6 50.8
9535 -4.5 -4.2 -3.4 -8.2
9536 21.6 52.8 21.8 45.0
9537 -6.0 -12.6 -11.4 -7.5
9538 50.8 38.5 34.3 42.8
9539 -11.8 -5.2 -8.8 -3.8
9540 -11.3 -8.9 -5.9 -9.0
9541 -3.5 -12.5 -5.7 -4.5
9542 -4.8 -6.3 -7.9 -4.4
9543 -12.3 -11.8 -3.5 -10.2
9544 46.5 54.5 46.5 36.3
9545 -10.8 -8.3 -10.5 -3.9
9546 -9.2 -12.7 -5.1 -4.2
9547 48.6 49.6 50.5 57.1
9548 -4.9 -5.2 -12.8 -6.8
9549 -3.5 -10.4 -11.8 -7.3
9550 -9.3 -5.9 -11.0 -3.4
9551 -6.6 -11.3 -5.5 -6.5
9552 -9.9 -10.2 -11.0 -3.8
9553 -5.2 -9.9 -6.6 -11.4
9554 -10.8 -3.6 -7.0 -6.9
9555 34.6 56.3 56.1 42.3
9556 52.6 56.1 30.1 22.3
9557 25.1 28.5 42.9 59.3
9558 -5.9 -3.9 -5.2 -5.0
9559 -7.0 -4.3 -7.5 -6.5
9560 52.9 31.0 41.4 54.9
9561 -4.0 -8.4 -6.1 -7.8
9562 -4.4 -10.2 -6.9 -7.6
9563 44.6 42.4 48.0 46.1
9564 55.4 37.1 22.8 38.4
9565 47.2 29.6 28.2 30.2
9566 -12.5 -7.2 -6.8 -6.8
9567 44.9 22.6 26.2 44.3
9568 -9.7 -12.1 -12.8 -4.6
9569 -7.8 -7.1 -7.9 -3.4
9570 29.6 53.3 31.5 38.2
9571 -4.3 -11.6 -9.2 -5.5
9572 59.0 45.5 39.8 29.5
9573 55.1 29.0 58.0 41.6
9574 38.9 35.2 23.4 41.1
9575 52.1 26.2 56.9 31.7
9576 37.5 58.6 56.0 24.4
9577 -4.0 -4.4 -12.3 -10.5
9578 -5.7 -9.7 -5.8 -5.9
9579 49.6 30.5 33.0 38.5
9580 25.8 42.5 23.9 23.3
9581 24.2 50.5 32.6 28.2
9582 -10.3 -8.7 -8.2 -4.0
9583 24.7 30.9 24.0 21.9
9584 -5.1 -10.0 -8.9 -3.7
9585 -5.5 -10.9 -4.0 -4.2
9586 55.7 30.7 59.0 26.9
9587 -8.3 -3.5 -8.3 -3.4
9588 -7.0 -3.4 -9.7 -11.5
9589 -5.2 -4.3 -4.4 -5.0
9590 -6.1 -6.7 -10.1 -4.1
9591 -9.1 -9.2 -10.2 -6.2
9592 -8.6 -3.7 -10.2 -9.1
9593 53.2 58.9 51.6 47.4
9594 -4.4 -5.9 -12.3 -9.2
9595 -3.5 -3.3 -11.5 -12.0
9596 30.4 52.6 25.7 21.4
9597 -5.6 -6.8 -10.6 -8.5
9598 59.9 54.8 30.5 46.9
9599 -12.4 -9.9 -11.3 -10.8
9600 -4.5 -12.0 -8.8 -5.8
9601 -5.3 -4.3 -7.8 -3.4
9602 -3.7 -9.0 -12.5 -8.8
9603 53.2 49.9 49.3 36.3
9604 -12.9 -7.6 -5.8 -9.7
9605 42.3 59.1 38.5 36.5
9606 47.3 50.0 36.9 26.2
9607 -4.1 -10.7 -12.4 -10.3
9608 57.6 52.1 36.9 29.9
9609 -5.9 -12.9 -4.4 -11.0
9610 25.9 39.0 40.2 31.9
9611 -10.4 -9.5 -3.3 -11.8
9612 -7.9 -4.9 -9.6 -5.8
9613 -11.8 -10.9 -4.3 -6.8
9614 22.9 38.1 22.5 22.9
9615 29.0 29.4 22.9 53.6
9616 -8.3 -9.0 -7.5 -11.7
9617 -9.1 -6.8 -4.5 -7.2
9618 -8.9 -10.1 -8.9 -4.4
9619 27.8 26.5 32.8 36.0
9620 -6.0 -8.0 -6.6 -12.2
9621 -11.3 -5.7 -10.9 -9.2
9622 -12.5 -5.6 -10.9 -10.4
9623 -8.4 -9.3 -10.5 -11.1
9624 -10.7 -5.8 -5.1 -3.2
9625 43.1 57.4 45.7 35.9
9626 -3.2 -4.6 -5.3 -11.1
9627 -4.5 -11.3 -12.3 -9.4
9628 -7.3 -5.8 -11.9 -11.0
9629 -7.6 -5.4 -8.2 -9.2
9630 -5.8 -4.0 -6.0 -6.4
9631 29.8 30.0 39.1 49.3
9632 40.4 32.4 46.3 39.9
9633 24.9 20.7 56.6 52.2
9634 27.4 40.8 53.7 36.3
9635 57.3 30.5 42.1 22.3
9636 -11.3 -10.2 -4.3 -8.9
9637 -8.9 -4.1 -7.2 -4.4
9638 -8.9 -10.3 -11.9 -10.0
9639 32.5 42.3 28.8 59.2
9640 -6.1 -12.4 -9.2 -4.2
9641 -6.9 -8.1 -11.2 -7.5
9642 -4.1 -11.4 -3.3 -11.6
9643 -3.7 -7.2 -8.8 -7.2
9644 -10.3 -4.8 -12.3 -12.1
9645 -9.9 -3.3 -4.9 -9.8
9646 -9.0 -5.7 -9.2 -4.9
9647 -7.1 -5.3 -9.8 -6.9
9648 41.1 28.4 26.9 50.7
9649 -5.8 -9.1 -12.1 -5.1
9650 -6.8 -4.8 -10.9 -11.4
9651 54.0 29.9 58.0 35.7
9652 -11.7 -7.3 -5.5 -12.2
9653 -6.7 -8.5 -5.2 -9.3
9654 -7.9 -12.5 -10.5 -7.4
9655 29.9 40.6 49.5 54.5
9656 -5.8 -12.3 -6.5 -4.3
9657 33.3 26.5 55.8 34.6
9658 -11.8 -5.6 -5.9 -11.1
9659 21.8 41.2 55.0 53.3
9660 -8.6 -8.0 -12.4 -12.5
9661 -12.9 -9.1 -3.2 -10.3
9662 37.3 31.2 34.0 54.3
9663 -10.0 -12.1 -12.5 -3.7
9664 43.6 54.4 49.4 43.9
9665 -9.9 -10.4 -8.0 -7.3
9666 29.0 33.1 23.9 29.4
9667 59.3 43.5 21.9 20.9
9668 -8.3 -7.5 -3.8 -9.9
9669 59.4 56.2 20.9 53.3
9670 56.9 58.3 46.1 22.2
9671 40.0 46.0 33.8 51.7
9672 -8.1 -12.4 -11.8 -3.4
9673 52.1 21.8 27.6 35.6
9674 34.2 33.6 30.3 52.0
9675 27.9 41.2 40.5 40.5
9676 -6.8 -4.6 -4.8 -4.3
9677 -4.7 -11.4 -8.5 -3.6
9678 -6.4 -9.6 -4.2 -12.7
9679 -12.6 -3.7 -5.4 -7.4
9680 51.7 55.8 44.0 35.9
9681 -4.6 -12.2 -6.7 -10.5
9682 26.9 39.9 25.4 25.2
9683 35.6 41.5 23.8 59.0
9684 41.5 44.9 57.6 37.1
9685 -8.8 -8.8 -4.3 -8.5
9686 -3.4 -4.3 -4.8 -5.3
9687 45.8 25.3 42.7 34.0
9688 46.0 29.0 57.8 33.7
9689 -7.1 -11.8 -5.2 -10.8
9690 -11.9 -8.5 -8.6 -6.5
9691 -3.3 -12.6 -4.0 -10.4
9692 -8.5 -9.4 -10.8 -10.0
9693 -12.0 -4.6 -4.0 -8.8
9694 43.1 43.9 43.4 35.6
9695 24.7 59.5 55.9 55.3
9696 28.1 45.4 28.4 45.2
9697 -12.8 -3.8 -10.5 -11.1
9698 55.3 28.6 25.4 32.7
9699 -6.3 -12.5 -5.3 -3.3
9700 -8.6 -4.3 -12.1 -12.6
9701 -9.8 -7.7 -3.4 -6.2
9702 -9.6 -4.6 -10.6 -10.0
9703 27.9 39.1 45.7 59.9
9704 55.4 31.5 21.0 53.3
9705 -11.1 -3.5 -7.5 -5.9
9706 49.6 30.2 45.8 45.1
9707 -5.4 -4.0 -10.8 -11.6
9708 -11.2 -4.8 -8.7 -10.6
9709 30.8 59.5 24.9 55.9
9710 28.7 51.4 42.8 51.2
9711 53.2 47.4 53.9 54.1
9712 -10.9 -10.9 -8.8 -10.4
9713 -10.0 -4.9 -3.2 -5.8
9714 -11.6 -7.7 -4.1 -12.6
9715 -7.3 -7.7 -7.9 -4.5
9716 -10.1 -10.3 -10.3 -12.1
9717 -12.1 -7.5 -12.1 -8.3
9718 40.5 39.0 44.2 26.6
9719 53.7 30.9 55.6 54.8
9720 38.9 21.8 37.5 20.6
9721 51.2 54.4 57.0 49.7
9722 -11.9 -6.7 -3.2 -8.7
9723 20.6 54.5 20.2 55.5
9724 -3.7 -9.2 -8.6 -3.3
9725 -6.0 -9.2 -12.2 -9.9
9726 -7.5 -9.1 -4.2 -8.7
9727 46.3 39.3 27.7 47.0
9728 -7.8 -10.3 -11.0 -6.1
9729 45.0 55.3 42.0 37.7
9730 -3.6 -12.2 -4.3 -10.9
9731 -11.9 -8.4 -8.5 -8.4
9732 -4.2 -11.9 -5.0 -8.2
9733 24.3 36.0 57.3 48.5
9734 -7.2 -7.3 -8.7 -10.4
9735 41.8 37.3 27.2 41.3
9736 -3.4 -5.6 -5.6 -11.2
9737 48.7 30.3 35.9 37.1
9738 -8.2 -12.7 -12.7 -6.5
9739 59.1 34.0 47.1 59.2
9740 39.6 22.9 51.6 59.9
9741 37.9 45.6 27.0 37.0
9742 -11.2 -6.7 -8.9 -12.3
9743 -10.9 -5.3 -9.3 -12.5
9744 -3.4 -3.7 -12.4 -3.6
9745 -9.4 -7.8 -8.8 -3.8
9746 59.2 53.7 59.5 47.9
9747 35.2 50.8 46.3 29.6
9748 -3.8 -8.8 -10.2 -11.4
9749 -8.6 -5.6 -5.2 -3.2
9750 38.1 43.2 28.2 54.7
9751 -12.5 -4.4 -9.8 -5.2
9752 52.8 32.8 51.2 43.3
9753 40.7 58.4 46.1 30.9
9754 -9.7 -10.0 -12.5 -7.8
9755 -4.5 -11.9 -11.7 -9.5
9756 -12.5 -12.3 -12.2 -8.3
9757 53.4 45.3 21.6 57.0
9758 -10.4 -12.5 -7.6 -8.6
9759 -11.6 -4.2 -5.4 -9.4
9760 -9.1 -6.6 -6.5 -4.1
9761 -9.5 -10.3 -11.9 -11.4
9762 -12.0 -8.7 -4.3 -7.3
9763 -3.9 -4.7 -6.6 -8.1
9764 -3.3 -7.8 -10.6 -12.7
9765 25.2 24.7 20.3 22.2
9766 -5.2 -10.3 -6.0 -10.5
9767 -4.5 -11.5 -7.2 -11.9
9768 -12.7 -5.2 -3.3 -5.8
9769 26.6 51.6 27.1 48.9
9770 -10.8 -8.5 -8.0 -3.6
9771 47.4 57.5 52.6 26.7
9772 -11.9 -5.9 -3.9 -4.0
9773 36.0 46.0 23.7 54.3
9774 -3.8 -5.8 -6.2 -11.1
9775 -8.5 -12.4 -11.2 -10.9
9776 -4.0 -12.7 -7.3 -11.3
9777 38.7 29.3 40.0 38.2
9778 35.0 49.0 42.3 58.5
9779 -4.7 -12.7 -12.7 -4.4
9780 -8.1 -3.8 -6.4 -12.1
9781 46.0 45.5 46.8 41.3
9782 -6.4 -4.9 -10.4 -10.8
9783 -5.2 -10.7 -4.8 -11.5
9784 -7.9 -4.4 -5.3 -3.8
9785 -5.9 -6.8 -9.8 -8.9
9786 -4.7 -3.8 -8.0 -10.1
9787 51.1 41.2 55.7 31.9
9788 29.8 37.4 58.7 39.2
9789 26.0 33.1 43.8 25.9
9790 -7.3 -8.9 -10.8 -6.5
9791 51.2 38.5 45.0 34.6
9792 28.7 48.8 51.4 59.8
9793 35.7 22.6 59.3 20.3
9794 -10.4 -3.7 -11.4 -10.4
9795 55.6 22.8 30.7 40.1
9796 -3.6 -11.4 -8.6 -12.0
9797 24.6 58.2 37.4 47.5
9798 -6.2 -8.1 -8.7 -4.7
9799 -10.3 -8.2 -8.9 -7.5
9800 -11.5 -6.6 -6.1 -7.1
9801 -8.8 -9.6 -10.5 -6.3
9802 -9.4 -5.1 -9.6 -3.9
9803 32.2 37.3 38.9 33.7
9804 52.5 53.9 22.5 59.7
9805 -7.4 -7.9 -6.3 -7.4
9806 -7.0 -9.8 -3.3 -11.0
9807 29.7 59.0 28.2 37.9
9808 -9.3 -7.0 -11.2 -10.0
9809 21.6 58.2 58.6 40.1
9810 34.7 46.3 39.1 40.2
9811 -8.1 -3.4 -9.4 -7.3
9812 36.6 25.9 49.1 33.5
9813 -6.3 -11.8 -10.2 -6.8
9814 50.7 47.2 37.8 40.9
9815 30.7 29.1 42.3 22.1
9816 45.4 22.6 48.3 25.0
9817 -6.4 -11.1 -9.4 -4.0
9818 -6.3 -4.6 -3.9 -8.8
9819 21.0 50.4 30.6 22.2
9820 23.1 52.1 33.3 59.1
9821 -3.3 -3.3 -7.0 -4.4
9822 -8.0 -4.3 -9.7 -6.3
9823 55.2 57.8 59.3 38.5
9824 -5.9 -10.5 -8.2 -5.6
9825 32.0 20.4 25.5 22.9
9826 29.7 39.0 45.7 22.8
9827 53.4 44.2 26.4 43.8
9828 -3.3 -9.8 -10.9 -11.8
9829 -8.8 -4.3 -6.7 -4.2
9830 -4.0 -9.2 -5.3 -10.0
9831 -6.3 -9.1 -8.2 -3.6
9832 30.6 40.8 44.8 54.4
9833 -10.7 -8.3 -9.3 -5.2
9834 43.9 41.6 38.2 36.1
9835 -11.2 -5.9 -9.5 -4.3
9836 -11.8 -8.5 -12.1 -7.6
9837 -12.8 -7.3 -9.3 -10.2
9838 22.2 23.8 53.8 57.2
9839 -8.4 -9.4 -7.5 -4.8
9840 25.9 53.4 44.4 36.1
9841 39.1 23.4 52.6 21.0
9842 -4.6 -8.3 -9.3 -3.5
9843 -8.4 -7.9 -8.0 -4.1
9844 -12.9 -10.7 -6.4 -7.2
9845 24.2 50.5 21.2 29.3
9846 -10.5 -6.1 -11.7 -8.0
9847 58.7 48.5 50.0 43.7
9848 -12.6 -9.8 -4.6 -6.8
9849 -8.8 -3.5 -5.0 -12.4
9850 44.4 37.1 20.9 42.5
9851 -7.5 -5.9 -4.2 -6.7
9852 59.9 41.6 34.2 57.1
9853 29.1 50.2 45.6 44.4
9854 52.5 31.6 29.4 39.8
9855 -11.6 -8.1 -9.1 -11.0
9856 -9.0 -6.9 -11.9 -9.0
9857 -12.0 -5.5 -3.3 -6.1
9858 -4.2 -3.5 -7.9 -7.3
9859 31.4 46.7 35.2 43.5
9860 52.9 59.8 53.8 45.9
9861 39.2 45.9 56.4 39.9
9862 48.1 37.3 34.8 59.4
9863 37.6 34.7 32.2 48.7
9864 43.5 46.3 38.6 26.1
9865 25.5 23.5 36.8 34.7
9866 -3.3 -9.9 -9.0 -5.7
9867 25.2 46.8 44.2 47.3
9868 -4.3 -4.2 -8.9 -4.8
9869 -3.9 -8.3 -7.7 -4.3
9870 -6.5 -11.0 -9.9 -12.0
9871 -9.8 -7.8 -6.0 -9.8
9872 -9.4 -10.3 -7.0 -6.2
9873 -12.1 -7.4 -5.5 -8.4
9874 41.7 20.8 22.5 52.1
9875 -8.6 -9.3 -6.2 -11.9
9876 -5.1 -3.9 -8.6 -3.5
9877 -6.4 -4.7 -5.1 -10.6
9878 22.7 26.7 53.3 54.4
9879 -4.8 -12.7 -5.5 -3.8
9880 -10.0 -5.9 -4.0 -8.4
9881 37.6 35.4 54.3 25.3
9882 -11.7 -3.5 -7.2 -3.4
9883 -9.6 -5.1 -5.1 -7.4
9884 -7.6 -9.4 -12.8 -8.7
9885 -8.5 -11.5 -9.2 -6.3
9886 53.8 53.7 36.0 44.6
9887 -11.9 -4.8 -7.3 -8.8
9888 -11.6 -6.7 -12.7 -3.9
9889 36.6 50.9 58.4 44.1
9890 32.7 32.8 40.5 23.2
9891 -8.3 -3.5 -9.8 -10.2
9892 22.3 32.1 51.5 31.3
9893 -6.9 -5.0 -9.7 -8.6
9894 -5.2 -6.4 -9.2 -9.8
9895 32.6 28.5 53.0 31.0
9896 -8.2 -4.4 -7.0 -9.4
9897 58.2 23.5 22.6 40.8
9898 -11.3 -4.0 -7.9 -8.7
9899 -8.0 -9.3 -10.3 -4.7
9900 0.0 0.0 0.0 0.0
9901 33.3 53.9 37.8 39.8
9902 -4.6 -10.4 -10.8 -5.7
9903 41.8 31.7 26.2 41.6
9904 -10.6 -12.6 -7.0 -7.2
9905 -6.3 -6.2 -5.4 -7.0
9906 -6.5 -8.0 -8.5 -6.6
9907 -3.3 -5.3 -10.7 -4.6
9908 -7.8 -9.9 -7.4 -7.9
9909 23.2 57.0 32.8 50.6
9910 25.9 54.7 24.7 46.0
9911 -3.6 -8.5 -8.2 -7.3
9912 48.5 54.7 20.3 51.9
9913 -5.4 -8.8 -8.5 -9.6
9914 24.8 37.9 49.8 44.3
9915 -5.8 -11.4 -5.3 -5.9
9916 27.2 51.5 55.6 21.7
9917 -10.5 -9.6 -3.4 -3.8
9918 -3.9 -11.4 -6.0 -10.4
9919 -11.6 -11.2 -8.7 -7.1
9920 39.7 48.2 47.9 25.2
9921 25.6 58.3 39.2 21.3
9922 30.1 43.3 43.7 24.5
9923 -3.3 -9.8 -7.4 -5.6
9924 -5.5 -7.7 -7.0 -5.5
9925 38.4 44.6 50.1 56.8
9926 -8.7 -12.1 -11.9 -11.6
9927 37.9 59.5 55.4 31.1
9928 41.6 56.3 47.0 20.3
9929 30.8 55.3 47.0 56.5
9930 -12.3 -7.3 -7.5 -5.6
9931 23.2 21.1 43.8 55.2
9932 -11.4 -8.5 -12.4 -11.7
9933 -4.9 -12.0 -7.7 -11.9
9934 -3.4 -7.5 -12.6 -3.2
9935 51.6 39.1 42.7 24.2
9936 48.3 22.7 47.4 56.9
9937 28.4 44.9 47.4 45.2
9938 -11.8 -3.5 -9.2 -6.1
9939 -12.6 -7.2 -3.4 -4.0
9940 33.2 46.3 47.5 32.9
9941 -5.5 -10.2 -4.2 -9.2
9942 -5.2 -3.7 -5.2 -11.8
9943 -6.7 -12.8 -8.5 -5.0
9944 -11.4 -6.1 -3.9 -4.8
9945 29.3 20.3 45.9 44.1
9946 -6.4 -11.8 -9.9 -5.1
9947 47.7 30.1 40.3 28.4
9948 -11.7 -7.4 -8.6 -3.3
9949 -7.4 -9.2 -7.3 -9.5
9950 36.6 26.9 52.0 54.6
9951 -5.4 -5.4 -8.5 -12.3
9952 -3.3 -4.5 -9.8 -11.9
9953 37.7 51.0 57.6 22.7
9954 -10.2 -11.8 -7.4 -10.2
9955 35.7 49.1 21.8 57.2
9956 -12.8 -11.1 -6.2 -5.9
9957 -9.9 -10.4 -11.4 -11.0
9958 37.7 39.7 33.1 58.8
9959 -11.9 -6.4 -4.0 -9.2
9960 -3.9 -8.8 -6.3 -12.1
9961 -4.6 -8.4 -9.7 -8.7
9962 -5.4 -11.0 -3.7 -12.3
9963 -10.5 -12.2 -7.5 -9.7
9964 44.9 51.7 37.1 48.3
9965 24.3 40.9 37.0 44.9
9966 -10.5 -11.0 -6.1 -11.6
9967 -11.6 -11.3 -7.2 -10.2
9968 38.7 30.5 55.5 53.7
9969 -3.4 -5.9 -9.5 -9.0
9970 -12.0 -5.0 -9.3 -11.6
9971 -9.4 -11.9 -6.2 -10.1
9972 28.4 36.8 41.6 48.1
9973 52.9 23.1 30.2 22.4
9974 -7.5 -3.4 -10.5 -3.8
9975 45.1 43.3 42.9 52.2
9976 -9.5 -9.6 -8.1 -8.5
9977 47.2 59.7 34.4 58.5
9978 -9.7 -10.3 -12.6 -7.6
9979 31.5 30.1 52.3 59.2
9980 -4.6 -4.6 -11.9 -5.4
9981 27.9 38.6 38.3 25.8
9982 -8.2 -4.0 -7.8 -12.2
9983 -5.8 -10.4 -3.9 -3.8
9984 51.8 25.2 42.3 54.7
9985 -5.9 -10.2 -4.1 -4.7
9986 -5.7 -9.5 -5.0 -10.2
9987 -5.7 -3.8 -10.9 -3.4
9988 31.4 54.1 49.1 27.8
9989 -8.9 -11.3 -3.8 -11.9
9990 25.8 30.9 55.9 52.5
9991 -6.8 -9.5 -8.7 -11.2
9992 38.4 48.7 37.1 40.0
9993 -4.7 -4.1 -3.5 -8.1
9994 32.8 59.5 36.4 56.9
9995 -10.8 -6.3 -10.5 -6.3
9996 -12.0 -7.8 -3.8 -6.8
9997 -8.9 -3.3 -11.9 -9.1
9998 39.1 50.8 29.9 42.7
9999 52.8 31.9 42.0 25.4
10000 -11.4 -7.0 -4.0 -6.0
DEPOT_CAPACITY_SECTION
5892 6383.1 6375.2 6327.4 6296.5
8061 6383.1 6375.2 6327.4 6296.5
1978 6383.1 6375.2 6327.4 6296.5
860 6383.1 6375.2 6327.4 6296.5
1666 6383.1 6375.2 6327.4 6296.5
8969 6383.1 6375.2 6327.4 6296.5
7544 6383.1 6375.2 6327.4 6296.5
318 6383.1 6375.2 6327.4 6296.5
8021 6383.1 6375.2 6327.4 6296.5
5771 6383.1 6375.2 6327.4 6296.5
7408 6383.1 6375.2 6327.4 6296.5
7080 6383.1 6375.2 6327.4 6296.5
3640 6383.1 6375.2 6327.4 6296.5
1715 6383.1 6375.2 6327.4 6296.5
6004 6383.1 6375.2 6327.4 6296.5
6420 6383.1 6375.2 6327.4 6296.5
1270 6383.1 6375.2 6327.4 6296.5
7995 6383.1 6375.2 6327.4 6296.5
4518 6383.1 6375.2 6327.4 6296.5
101 6383.1 6375.2 6327.4 6296.5
3300 6383.1 6375.2 6327.4 6296.5
8939 6383.1 6375.2 6327.4 6296.5
4251 6383.1 6375.2 6327.4 6296.5
6463 6383.1 6375.2 6327.4 6296.5
7277 6383.1 6375.2 6327.4 6296.5
2774 6383.1 6375.2 6327.4 6296.5
4101 6383.1 6375.2 6327.4 6296.5
7992 6383.1 6375.2 6327.4 6296.5
6380 6383.1 6375.2 6327.4 6296.5
3664 6383.1 6375.2 6327.4 6296.5
6630 6383.1 6375.2 6327.4 6296.5
6805 6383.1 6375.2 6327.4 6296.5
222 6383.1 6375.2 6327.4 6296.5
5524 6383.1 6375.2 6327.4 6296.5
6497 6383.1 6375.2 6327.4 6296.5
3868 6383.1 6375.2 6327.4 6296.5
4733 6383.1 6375.2 6327.4 6296.5
61 6383.1 6375.2 6327.4 6296.5
3165 6383.1 6375.2 6327.4 6296.5
526 6383.1 6375.2 6327.4 6296.5
2866 6383.1 6375.2 6327.4 6296.5
3222 6383.1 6375.2 6327.4 6296.5
4019 6383.1 6375.2 6327.4 6296.5
4816 6383.1 6375.2 6327.4 6296.5
6295 6383.1 6375.2 6327.4 6296.5
2123 6383.1 6375.2 6327.4 6296.5
4689 6383.1 6375.2 6327.4 6296.5
3418 6383.1 6375.2 6327.4 6296.5
5285 6383.1 6375.2 6327.4 6296.5
5027 6383.1 6375.2 6327.4 6296.5
2055 6383.1 6375.2 6327.4 6296.5
493 6383.1 6375.2 6327.4 6296.5
6744 6383.1 6375.2 6327.4 6296.5
3091 6383.1 6375.2 6327.4 6296.5
3580 6383.1 6375.2 6327.4 6296.5
2638 6383.1 6375.2 6327.4 6296.5
2448 6383.1 6375.2 6327.4 6296.5
9900 6383.1 6375.2 6327.4 6296.5
8720 6383.1 6375.2 6327.4 6296.5
6608 6383.1 6375.2 6327.4 6296.5
5811 6383.1 6375.2 6327.4 6296.5
1140 6383.1 6375.2 6327.4 6296.5
6948 6383.1 6375.2 6327.4 6296.5
2704 6383.1 6375.2 6327.4 6296.5
6085 6383.1 6375.2 6327.4 6296.5
605 6383.1 6375.2 6327.4 6296.5
1355 6383.1 6375.2 6327.4 6296.5
5220 6383.1 6375.2 6327.4 6296.5
26 6383.1 6375.2 6327.4 6296.5
5044 6383.1 6375.2 6327.4 6296.5
881 6383.1 6375.2 6327.4 6296.5
868 6383.1 6375.2 6327.4 6296.5
891 6383.1 6375.2 6327.4 6296.5
859 6383.1 6375.2 6327.4 6296.5
873 6383.1 6375.2 6327.4 6296.5
893 6383.1 6375.2 6327.4 6296.5
890 6383.1 6375.2 6327.4 6296.5
863 6383.1 6375.2 6327.4 6296.5
888 6383.1 6375.2 6327.4 6296.5
877 6383.1 6375.2 6327.4 6296.5
856 6383.1 6375.2 6327.4 6296.5
882 6383.1 6375.2 6327.4 6296.5
869 6383.1 6375.2 6327.4 6296.5
871 6383.1 6375.2 6327.4 6296.5
886 6383.1 6375.2 6327.4 6296.5
864 6383.1 6375.2 6327.4 6296.5
899 6383.1 6375.2 6327.4 6296.5
865 6383.1 6375.2 6327.4 6296.5
896 6383.1 6375.2 6327.4 6296.5
879 6383.1 6375.2 6327.4 6296.5
883 6383.1 6375.2 6327.4 6296.5
861 6383.1 6375.2 6327.4 6296.5
884 6383.1 6375.2 6327.4 6296.5
7951 6383.1 6375.2 6327.4 6296.5
874 6383.1 6375.2 6327.4 6296.5
889 6383.1 6375.2 6327.4 6296.5
7932 6383.1 6375.2 6327.4 6296.5
887 6383.1 6375.2 6327.4 6296.5
892 6383.1 6375.2 6327.4 6296.5
7926 6383.1 6375.2 6327.4 6296.5
DEPOT_SECTION
5892
8061
1978
860
1666
8969
7544
318
8021
5771
7408
7080
3640
1715
6004
6420
1270
7995
4518
101
3300
8939
4251
6463
7277
2774
4101
7992
6380
3664
6630
6805
222
5524
6497
3868
4733
61
3165
526
2866
3222
4019
4816
6295
2123
4689
3418
5285
5027
2055
493
6744
3091
3580
2638
2448
9900
8720
6608
5811
1140
6948
2704
6085
605
1355
5220
26
5044
881
868
891
859
873
893
890
863
888
877
856
882
869
871
886
864
899
865
896
879
883
861
884
7951
874
889
7932
887
892
7926
-1
VEHICLE_SECTION
1 5892 Type_A 1.0 117.3 117.2 116.3 115.7
2 5892 Type_B 1.3 152.5 152.3 151.2 150.5
3 5892 Type_C 1.8 211.2 210.9 209.4 208.3
4 8061 Type_A 1.0 117.3 117.2 116.3 115.7
5 8061 Type_B 1.3 152.5 152.3 151.2 150.5
6 8061 Type_C 1.8 211.2 210.9 209.4 208.3
7 1978 Type_A 1.0 117.3 117.2 116.3 115.7
8 1978 Type_B 1.3 152.5 152.3 151.2 150.5
9 1978 Type_C 1.8 211.2 210.9 209.4 208.3
10 860 Type_A 1.0 117.3 117.2 116.3 115.7
11 860 Type_B 1.3 152.5 152.3 151.2 150.5
12 860 Type_C 1.8 211.2 210.9 209.4 208.3
13 1666 Type_A 1.0 117.3 117.2 116.3 115.7
14 1666 Type_B 1.3 152.5 152.3 151.2 150.5
15 1666 Type_C 1.8 211.2 210.9 209.4 208.3
16 8969 Type_A 1.0 117.3 117.2 116.3 115.7
17 8969 Type_B 1.3 152.5 152.3 151.2 150.5
18 8969 Type_C 1.8 211.2 210.9 209.4 208.3
19 7544 Type_A 1.0 117.3 117.2 116.3 115.7
20 7544 Type_B 1.3 152.5 152.3 151.2 150.5
21 7544 Type_C 1.8 211.2 210.9 209.4 208.3
22 318 Type_A 1.0 117.3 117.2 116.3 115.7
23 318 Type_B 1.3 152.5 152.3 151.2 150.5
24 318 Type_C 1.8 211.2 210.9 209.4 208.3
25 8021 Type_A 1.0 117.3 117.2 116.3 115.7
26 8021 Type_B 1.3 152.5 152.3 151.2 150.5
27 8021 Type_C 1.8 211.2 210.9 209.4 208.3
28 5771 Type_A 1.0 117.3 117.2 116.3 115.7
29 5771 Type_B 1.3 152.5 152.3 151.2 150.5
30 5771 Type_C 1.8 211.2 210.9 209.4 208.3
31 7408 Type_A 1.0 117.3 117.2 116.3 115.7
32 7408 Type_B 1.3 152.5 152.3 151.2 150.5
33 7408 Type_C 1.8 211.2 210.9 209.4 208.3
34 7080 Type_A 1.0 117.3 117.2 116.3 115.7
35 7080 Type_B 1.3 152.5 152.3 151.2 150.5
36 7080 Type_C 1.8 211.2 210.9 209.4 208.3
37 3640 Type_A 1.0 117.3 117.2 116.3 115.7
38 3640 Type_B 1.3 152.5 152.3 151.2 150.5
39 3640 Type_C 1.8 211.2 210.9 209.4 208.3
40 1715 Type_A 1.0 117.3 117.2 116.3 115.7
41 1715 Type_B 1.3 152.5 152.3 151.2 150.5
42 1715 Type_C 1.8 211.2 210.9 209.4 208.3
43 6004 Type_A 1.0 117.3 117.2 116.3 115.7
44 6004 Type_B 1.3 152.5 152.3 151.2 150.5
45 6004 Type_C 1.8 211.2 210.9 209.4 208.3
46 6420 Type_A 1.0 117.3 117.2 116.3 115.7
47 6420 Type_B 1.3 152.5 152.3 151.2 150.5
48 6420 Type_C 1.8 211.2 210.9 209.4 208.3
49 1270 Type_A 1.0 117.3 117.2 116.3 115.7
50 1270 Type_B 1.3 152.5 152.3 151.2 150.5
51 1270 Type_C 1.8 211.2 210.9 209.4 208.3
52 7995 Type_A 1.0 117.3 117.2 116.3 115.7
53 7995 Type_B 1.3 152.5 152.3 151.2 150.5
54 7995 Type_C 1.8 211.2 210.9 209.4 208.3
55 4518 Type_A 1.0 117.3 117.2 116.3 115.7
56 4518 Type_B 1.3 152.5 152.3 151.2 150.5
57 4518 Type_C 1.8 211.2 210.9 209.4 208.3
58 101 Type_A 1.0 117.3 117.2 116.3 115.7
59 101 Type_B 1.3 152.5 152.3 151.2 150.5
60 101 Type_C 1.8 211.2 210.9 209.4 208.3
61 3300 Type_A 1.0 117.3 117.2 116.3 115.7
62 3300 Type_B 1.3 152.5 152.3 151.2 150.5
63 3300 Type_C 1.8 211.2 210.9 209.4 208.3
64 8939 Type_A 1.0 117.3 117.2 116.3 115.7
65 8939 Type_B 1.3 152.5 152.3 151.2 150.5
66 8939 Type_C 1.8 211.2 210.9 209.4 208.3
67 4251 Type_A 1.0 117.3 117.2 116.3 115.7
68 4251 Type_B 1.3 152.5 152.3 151.2 150.5
69 4251 Type_C 1.8 211.2 210.9 209.4 208.3
70 6463 Type_A 1.0 117.3 117.2 116.3 115.7
71 6463 Type_B 1.3 152.5 152.3 151.2 150.5
72 6463 Type_C 1.8 211.2 210.9 209.4 208.3
73 7277 Type_A 1.0 117.3 117.2 116.3 115.7
74 7277 Type_B 1.3 152.5 152.3 151.2 150.5
75 7277 Type_C 1.8 211.2 210.9 209.4 208.3
76 2774 Type_A 1.0 117.3 117.2 116.3 115.7
77 2774 Type_B 1.3 152.5 152.3 151.2 150.5
78 2774 Type_C 1.8 211.2 210.9 209.4 208.3
79 4101 Type_A 1.0 117.3 117.2 116.3 115.7
80 4101 Type_B 1.3 152.5 152.3 151.2 150.5
81 4101 Type_C 1.8 211.2 210.9 209.4 208.3
82 7992 Type_A 1.0 117.3 117.2 116.3 115.7
83 7992 Type_B 1.3 152.5 152.3 151.2 150.5
84 7992 Type_C 1.8 211.2 210.9 209.4 208.3
85 6380 Type_A 1.0 117.3 117.2 116.3 115.7
86 6380 Type_B 1.3 152.5 152.3 151.2 150.5
87 6380 Type_C 1.8 211.2 210.9 209.4 208.3
88 3664 Type_A 1.0 117.3 117.2 116.3 115.7
89 3664 Type_B 1.3 152.5 152.3 151.2 150.5
90 3664 Type_C 1.8 211.2 210.9 209.4 208.3
91 6630 Type_A 1.0 117.3 117.2 116.3 115.7
92 6630 Type_B 1.3 152.5 152.3 151.2 150.5
93 6630 Type_C 1.8 211.2 210.9 209.4 208.3
94 6805 Type_A 1.0 117.3 117.2 116.3 115.7
95 6805 Type_B 1.3 152.5 152.3 151.2 150.5
96 6805 Type_C 1.8 211.2 210.9 209.4 208.3
97 222 Type_A 1.0 117.3 117.2 116.3 115.7
98 222 Type_B 1.3 152.5 152.3 151.2 150.5
99 222 Type_C 1.8 211.2 210.9 209.4 208.3
100 5524 Type_A 1.0 117.3 117.2 116.3 115.7
101 5524 Type_B 1.3 152.5 152.3 151.2 150.5
102 5524 Type_C 1.8 211.2 210.9 209.4 208.3
103 6497 Type_A 1.0 117.3 117.2 116.3 115.7
104 6497 Type_B 1.3 152.5 152.3 151.2 150.5
105 6497 Type_C 1.8 211.2 210.9 209.4 208.3
106 3868 Type_A 1.0 117.3 117.2 116.3 115.7
107 3868 Type_B 1.3 152.5 152.3 151.2 150.5
108 3868 Type_C 1.8 211.2 210.9 209.4 208.3
109 4733 Type_A 1.0 117.3 117.2 116.3 115.7
110 4733 Type_B 1.3 152.5 152.3 151.2 150.5
111 4733 Type_C 1.8 211.2 210.9 209.4 208.3
112 61 Type_A 1.0 117.3 117.2 116.3 115.7
113 61 Type_B 1.3 152.5 152.3 151.2 150.5
114 61 Type_C 1.8 211.2 210.9 209.4 208.3
115 3165 Type_A 1.0 117.3 117.2 116.3 115.7
116 3165 Type_B 1.3 152.5 152.3 151.2 150.5
117 3165 Type_C 1.8 211.2 210.9 209.4 208.3
118 526 Type_A 1.0 117.3 117.2 116.3 115.7
119 526 Type_B 1.3 152.5 152.3 151.2 150.5
120 526 Type_C 1.8 211.2 210.9 209.4 208.3
121 2866 Type_A 1.0 117.3 117.2 116.3 115.7
122 2866 Type_B 1.3 152.5 152.3 151.2 150.5
123 2866 Type_C 1.8 211.2 210.9 209.4 208.3
124 3222 Type_A 1.0 117.3 117.2 116.3 115.7
125 3222 Type_B 1.3 152.5 152.3 151.2 150.5
126 3222 Type_C 1.8 211.2 210.9 209.4 208.3
127 4019 Type_A 1.0 117.3 117.2 116.3 115.7
128 4019 Type_B 1.3 152.5 152.3 151.2 150.5
129 4019 Type_C 1.8 211.2 210.9 209.4 208.3
130 4816 Type_A 1.0 117.3 117.2 116.3 115.7
131 4816 Type_B 1.3 152.5 152.3 151.2 150.5
132 4816 Type_C 1.8 211.2 210.9 209.4 208.3
133 6295 Type_A 1.0 117.3 117.2 116.3 115.7
134 6295 Type_B 1.3 152.5 152.3 151.2 150.5
135 6295 Type_C 1.8 211.2 210.9 209.4 208.3
136 2123 Type_A 1.0 117.3 117.2 116.3 115.7
137 2123 Type_B 1.3 152.5 152.3 151.2 150.5
138 2123 Type_C 1.8 211.2 210.9 209.4 208.3
139 4689 Type_A 1.0 117.3 117.2 116.3 115.7
140 4689 Type_B 1.3 152.5 152.3 151.2 150.5
141 4689 Type_C 1.8 211.2 210.9 209.4 208.3
142 3418 Type_A 1.0 117.3 117.2 116.3 115.7
143 3418 Type_B 1.3 152.5 152.3 151.2 150.5
144 3418 Type_C 1.8 211.2 210.9 209.4 208.3
145 5285 Type_A 1.0 117.3 117.2 116.3 115.7
146 5285 Type_B 1.3 152.5 152.3 151.2 150.5
147 5285 Type_C 1.8 211.2 210.9 209.4 208.3
148 5027 Type_A 1.0 117.3 117.2 116.3 115.7
149 5027 Type_B 1.3 152.5 152.3 151.2 150.5
150 5027 Type_C 1.8 211.2 210.9 209.4 208.3
151 2055 Type_A 1.0 117.3 117.2 116.3 115.7
152 2055 Type_B 1.3 152.5 152.3 151.2 150.5
153 2055 Type_C 1.8 211.2 210.9 209.4 208.3
154 493 Type_A 1.0 117.3 117.2 116.3 115.7
155 493 Type_B 1.3 152.5 152.3 151.2 150.5
156 493 Type_C 1.8 211.2 210.9 209.4 208.3
157 6744 Type_A 1.0 117.3 117.2 116.3 115.7
158 6744 Type_B 1.3 152.5 152.3 151.2 150.5
159 6744 Type_C 1.8 211.2 210.9 209.4 208.3
160 3091 Type_A 1.0 117.3 117.2 116.3 115.7
161 3091 Type_B 1.3 152.5 152.3 151.2 150.5
162 3091 Type_C 1.8 211.2 210.9 209.4 208.3
163 3580 Type_A 1.0 117.3 117.2 116.3 115.7
164 3580 Type_B 1.3 152.5 152.3 151.2 150.5
165 3580 Type_C 1.8 211.2 210.9 209.4 208.3
166 2638 Type_A 1.0 117.3 117.2 116.3 115.7
167 2638 Type_B 1.3 152.5 152.3 151.2 150.5
168 2638 Type_C 1.8 211.2 210.9 209.4 208.3
169 2448 Type_A 1.0 117.3 117.2 116.3 115.7
170 2448 Type_B 1.3 152.5 152.3 151.2 150.5
171 2448 Type_C 1.8 211.2 210.9 209.4 208.3
172 9900 Type_A 1.0 117.3 117.2 116.3 115.7
173 9900 Type_B 1.3 152.5 152.3 151.2 150.5
174 9900 Type_C 1.8 211.2 210.9 209.4 208.3
175 8720 Type_A 1.0 117.3 117.2 116.3 115.7
176 8720 Type_B 1.3 152.5 152.3 151.2 150.5
177 8720 Type_C 1.8 211.2 210.9 209.4 208.3
178 6608 Type_A 1.0 117.3 117.2 116.3 115.7
179 6608 Type_B 1.3 152.5 152.3 151.2 150.5
180 6608 Type_C 1.8 211.2 210.9 209.4 208.3
181 5811 Type_A 1.0 117.3 117.2 116.3 115.7
182 5811 Type_B 1.3 152.5 152.3 151.2 150.5
183 5811 Type_C 1.8 211.2 210.9 209.4 208.3
184 1140 Type_A 1.0 117.3 117.2 116.3 115.7
185 1140 Type_B 1.3 152.5 152.3 151.2 150.5
186 1140 Type_C 1.8 211.2 210.9 209.4 208.3
187 6948 Type_A 1.0 117.3 117.2 116.3 115.7
188 6948 Type_B 1.3 152.5 152.3 151.2 150.5
189 6948 Type_C 1.8 211.2 210.9 209.4 208.3
190 2704 Type_A 1.0 117.3 117.2 116.3 115.7
191 2704 Type_B 1.3 152.5 152.3 151.2 150.5
192 2704 Type_C 1.8 211.2 210.9 209.4 208.3
193 6085 Type_A 1.0 117.3 117.2 116.3 115.7
194 6085 Type_B 1.3 152.5 152.3 151.2 150.5
195 6085 Type_C 1.8 211.2 210.9 209.4 208.3
196 605 Type_A 1.0 117.3 117.2 116.3 115.7
197 605 Type_B 1.3 152.5 152.3 151.2 150.5
198 605 Type_C 1.8 211.2 210.9 209.4 208.3
199 1355 Type_A 1.0 117.3 117.2 116.3 115.7
200 1355 Type_B 1.3 152.5 152.3 151.2 150.5
201 1355 Type_C 1.8 211.2 210.9 209.4 208.3
202 5220 Type_A 1.0 117.3 117.2 116.3 115.7
203 5220 Type_B 1.3 152.5 152.3 151.2 150.5
204 5220 Type_C 1.8 211.2 210.9 209.4 208.3
205 26 Type_A 1.0 117.3 117.2 116.3 115.7
206 26 Type_B 1.3 152.5 152.3 151.2 150.5
207 26 Type_C 1.8 211.2 210.9 209.4 208.3
208 5044 Type_A 1.0 117.3 117.2 116.3 115.7
209 5044 Type_B 1.3 152.5 152.3 151.2 150.5
210 5044 Type_C 1.8 211.2 210.9 209.4 208.3
211 881 Type_A 1.0 117.3 117.2 116.3 115.7
212 881 Type_B 1.3 152.5 152.3 151.2 150.5
213 881 Type_C 1.8 211.2 210.9 209.4 208.3
214 868 Type_A 1.0 117.3 117.2 116.3 115.7
215 868 Type_B 1.3 152.5 152.3 151.2 150.5
216 868 Type_C 1.8 211.2 210.9 209.4 208.3
217 891 Type_A 1.0 117.3 117.2 116.3 115.7
218 891 Type_B 1.3 152.5 152.3 151.2 150.5
219 891 Type_C 1.8 211.2 210.9 209.4 208.3
220 859 Type_A 1.0 117.3 117.2 116.3 115.7
221 859 Type_B 1.3 152.5 152.3 151.2 150.5
222 859 Type_C 1.8 211.2 210.9 209.4 208.3
223 873 Type_A 1.0 117.3 117.2 116.3 115.7
224 873 Type_B 1.3 152.5 152.3 151.2 150.5
225 873 Type_C 1.8 211.2 210.9 209.4 208.3
226 893 Type_A 1.0 117.3 117.2 116.3 115.7
227 893 Type_B 1.3 152.5 152.3 151.2 150.5
228 893 Type_C 1.8 211.2 210.9 209.4 208.3
229 890 Type_A 1.0 117.3 117.2 116.3 115.7
230 890 Type_B 1.3 152.5 152.3 151.2 150.5
231 890 Type_C 1.8 211.2 210.9 209.4 208.3
232 863 Type_A 1.0 117.3 117.2 116.3 115.7
233 863 Type_B 1.3 152.5 152.3 151.2 150.5
234 863 Type_C 1.8 211.2 210.9 209.4 208.3
235 888 Type_A 1.0 117.3 117.2 116.3 115.7
236 888 Type_B 1.3 152.5 152.3 151.2 150.5
237 888 Type_C 1.8 211.2 210.9 209.4 208.3
238 877 Type_A 1.0 117.3 117.2 116.3 115.7
239 877 Type_B 1.3 152.5 152.3 151.2 150.5
240 877 Type_C 1.8 211.2 210.9 209.4 208.3
241 856 Type_A 1.0 117.3 117.2 116.3 115.7
242 856 Type_B 1.3 152.5 152.3 151.2 150.5
243 856 Type_C 1.8 211.2 210.9 209.4 208.3
244 882 Type_A 1.0 117.3 117.2 116.3 115.7
245 882 Type_B 1.3 152.5 152.3 151.2 150.5
246 882 Type_C 1.8 211.2 210.9 209.4 208.3
247 869 Type_A 1.0 117.3 117.2 116.3 115.7
248 869 Type_B 1.3 152.5 152.3 151.2 150.5
249 869 Type_C 1.8 211.2 210.9 209.4 208.3
250 871 Type_A 1.0 117.3 117.2 116.3 115.7
251 871 Type_B 1.3 152.5 152.3 151.2 150.5
252 871 Type_C 1.8 211.2 210.9 209.4 208.3
253 886 Type_A 1.0 117.3 117.2 116.3 115.7
254 886 Type_B 1.3 152.5 152.3 151.2 150.5
255 886 Type_C 1.8 211.2 210.9 209.4 208.3
256 864 Type_A 1.0 117.3 117.2 116.3 115.7
257 864 Type_B 1.3 152.5 152.3 151.2 150.5
258 864 Type_C 1.8 211.2 210.9 209.4 208.3
259 899 Type_A 1.0 117.3 117.2 116.3 115.7
260 899 Type_B 1.3 152.5 152.3 151.2 150.5
261 899 Type_C 1.8 211.2 210.9 209.4 208.3
262 865 Type_A 1.0 117.3 117.2 116.3 115.7
263 865 Type_B 1.3 152.5 152.3 151.2 150.5
264 865 Type_C 1.8 211.2 210.9 209.4 208.3
265 896 Type_A 1.0 117.3 117.2 116.3 115.7
266 896 Type_B 1.3 152.5 152.3 151.2 150.5
267 896 Type_C 1.8 211.2 210.9 209.4 208.3
268 879 Type_A 1.0 117.3 117.2 116.3 115.7
269 879 Type_B 1.3 152.5 152.3 151.2 150.5
270 879 Type_C 1.8 211.2 210.9 209.4 208.3
271 883 Type_A 1.0 117.3 117.2 116.3 115.7
272 883 Type_B 1.3 152.5 152.3 151.2 150.5
273 883 Type_C 1.8 211.2 210.9 209.4 208.3
274 861 Type_A 1.0 117.3 117.2 116.3 115.7
275 861 Type_B 1.3 152.5 152.3 151.2 150.5
276 861 Type_C 1.8 211.2 210.9 209.4 208.3
277 884 Type_A 1.0 117.3 117.2 116.3 115.7
278 884 Type_B 1.3 152.5 152.3 151.2 150.5
279 884 Type_C 1.8 211.2 210.9 209.4 208.3
280 7951 Type_A 1.0 117.3 117.2 116.3 115.7
281 7951 Type_B 1.3 152.5 152.3 151.2 150.5
282 7951 Type_C 1.8 211.2 210.9 209.4 208.3
283 874 Type_A 1.0 117.3 117.2 116.3 115.7
284 874 Type_B 1.3 152.5 152.3 151.2 150.5
285 874 Type_C 1.8 211.2 210.9 209.4 208.3
286 889 Type_A 1.0 117.3 117.2 116.3 115.7
287 889 Type_B 1.3 152.5 152.3 151.2 150.5
288 889 Type_C 1.8 211.2 210.9 209.4 208.3
289 7932 Type_A 1.0 117.3 117.2 116.3 115.7
290 7932 Type_B 1.3 152.5 152.3 151.2 150.5
291 7932 Type_C 1.8 211.2 210.9 209.4 208.3
292 887 Type_A 1.0 117.3 117.2 116.3 115.7
293 887 Type_B 1.3 152.5 152.3 151.2 150.5
294 887 Type_C 1.8 211.2 210.9 209.4 208.3
295 892 Type_A 1.0 117.3 117.2 116.3 115.7
296 892 Type_B 1.3 152.5 152.3 151.2 150.5
297 892 Type_C 1.8 211.2 210.9 209.4 208.3
298 7926 Type_A 1.0 117.3 117.2 116.3 115.7
299 7926 Type_B 1.3 152.5 152.3 151.2 150.5
300 7926 Type_C 1.8 211.2 210.9 209.4 208.3
PROHIBITED_SECTION
2679 9140
2519 652
2174 6580
5880 4967
3410 7350
6125 984
8835 6235
6959 5996
6508 7960
2663 1372
5540 8974
1183 5808
5267 5102
6638 4847
1658 1369
9625 1941
5548 9076
3021 5480
4735 3112
358 5731
1264 7913
218 1467
8952 2628
1761 4808
6999 3312
9458 2971
5992 6518
6008 4858
6881 5865
9857 7989
8986 7109
7746 3792
5108 1005
5616 1092
2773 6967
9608 3259
3651 6208
8647 3719
3088 8680
6235 9505
4577 8798
2327 922
50 441
1231 8547
6962 8264
6187 5690
9953 907
369 1651
4315 2843
8680 6782
7122 4657
3348 231
1796 3934
4438 2779
7360 6382
9864 9659
9862 4582
2332 738
4334 8664
3349 8092
6633 571
211 2829
5500 7954
3993 4835
9295 3700
7448 5086
9371 5868
9901 8261
6938 5265
1538 4355
6514 2343
2279 9818
7872 8528
3098 3429
3439 7774
9842 1583
1595 9466
6178 7800
9599 1821
6886 2696
1174 4483
5468 7199
1838 4808
9218 967
1178 2408
3559 531
2650 6155
3171 6495
9096 6977
3981 1961
8158 130
1541 3285
2461 6167
8647 2243
8631 4311
5503 3974
5181 4455
1051 7094
9612 276
7509 6609
1878 7956
2041 6415
5701 9382
2319 995
1910 36
1358 9954
4124 5262
4172 8819
6996 7773
3846 7343
5999 5972
4128 6219
5677 8467
9459 5150
7617 542
6271 1872
2949 7873
4425 6268
8006 8270
9160 9128
6156 9143
1714 167
9577 8292
8790 4192
5961 1749
494 9879
5016 5031
7452 7899
1014 5835
3168 2526
5737 4269
6964 4485
3654 3794
2486 846
8716 5729
606 6839
4096 2078
9932 380
1373 7105
9309 981
8273 6628
3971 9401
6155 5841
1009 1038
9845 3082
606 2792
8465 9055
763 8395
945 8178
376 6124
3742 3755
4102 7610
9706 8236
7028 9483
7445 3890
4073 7408
1292 2889
1592 5544
1961 1899
6513 9659
2352 6436
8680 4730
3200 5246
6463 6069
2578 4685
4003 7557
7948 2120
8043 6730
435 2797
9391 759
2809 8467
702 6849
7861 5679
9020 2957
5313 2373
5671 7771
5208 5638
8569 2505
7395 8698
6237 7565
8150 2012
1260 9687
5460 5189
2300 9901
3235 801
9698 5616
1856 785
9579 2104
2690 1177
8962 3187
2513 5057
7981 2530
6269 640
3669 5210
3294 2591
8918 8819
1246 207
538 2289
8599 6724
7666 4653
9897 2659
6779 5409
9379 3421
4307 8361
7945 9082
8305 8077
389 6315
3911 7081
4374 5971
2761 8901
766 1682
7631 3600
5255 8839
3704 1433
6621 6616
6426 269
7486 7467
7912 214
6788 6217
8050 2794
4605 9040
4009 8167
6159 6355
890 8311
3675 346
8886 5515
895 9544
8909 3051
6901 9806
882 2711
9782 7901
245 7061
2328 7695
2916 3428
3670 1714
2726 5194
5458 4928
7509 7387
827 9666
6455 8035
842 2004
3150 7366
7887 6898
2897 1576
1074 516
3238 7261
6114 2425
7145 4687
43 9558
609 6221
9953 3386
336 1631
6549 5247
134 3631
1380 5863
2017 6879
3425 6840
9336 612
2217 8754
2331 6039
4066 4229
5565 4901
1447 8766
1438 5563
5446 8810
5630 4134
3817 2804
4514 4354
2953 5008
2301 2282
4097 4294
5678 1269
9559 4580
5126 8900
1935 316
3526 7236
4294 2379
6141 55
1383 4955
1987 9722
7969 8222
5416 6931
6357 5163
9429 5519
5423 3506
4555 4170
6563 6397
2165 4385
1461 7079
8322 5226
7544 1836
7394 8433
9138 1985
7416 277
5058 5472
9303 175
1823 8160
5208 2634
5829 1172
8436 1765
3308 6653
7463 8604
1744 5029
1764 433
7824 4051
5960 6729
7684 4514
8788 3756
3096 3009
7561 9717
6913 6255
1358 4432
2879 2449
5910 4966
3481 4010
5114 7310
3661 7965
4401 1942
2103 492
2344 4207
8229 7864
5432 7795
5756 8651
1664 1771
5635 7111
2666 8140
1892 5062
4236 6280
2145 3076
5933 831
3212 6371
4914 9207
7740 4501
1916 5816
266 2137
6300 706
9430 9374
9621 8991
5750 2969
4371 7511
9453 3427
6289 2016
5588 7833
4099 9986
3464 7872
807 7192
1820 7959
8923 8506
8122 8557
5752 8670
5196 9776
5981 5474
9125 3615
3046 7317
5436 4436
2185 9483
7079 5669
1327 9588
1340 8241
79 1253
316 9886
66 6140
8481 7807
5393 5856
164 2114
8732 4138
1373 8836
4356 7007
6165 5203
8732 1653
4693 7533
1497 9355
1360 1771
1220 2908
6380 1396
7615 5773
2649 2718
6012 5390
9018 4840
2207 3723
4679 992
5264 490
6509 2946
1804 2212
1402 8289
7824 9865
7058 6697
2681 5416
2777 3218
7350 4320
6827 6994
10000 8180
9529 6352
5535 1161
8979 8823
8323 8460
2843 2635
6793 7320
9024 9604
186 3631
9269 434
1101 5303
4326 4632
6869 9403
6813 4954
3247 3658
817 6169
8183 9073
3063 1279
5544 1264
9932 4107
7379 6898
5370 7838
3530 8393
3324 8986
5260 8737
7077 6355
7769 5339
3027 6478
7790 7998
460 2053
5731 9062
7388 4072
2795 2611
8129 4066
254 925
9754 7612
9844 8030
4868 5692
1709 8663
6222 9306
7903 8440
4797 418
3867 7183
1716 6702
5692 1314
4932 9448
8537 2702
7418 1795
4622 2171
8005 7669
8295 2182
7094 6465
9280 5948
415 3804
3590 9262
2350 9757
6391 7446
3534 1948
6564 2987
1396 8616
2901 7721
1591 1393
8925 9248
6332 91
6285 3517
7646 5217
4071 5956
4063 4628
4184 8020
8218 4225
1759 8154
3804 9861
6185 7295
4018 2576
4158 8650
7314 2724
2598 8628
3877 5870
2396 2104
4942 2441
6348 6064
3667 6801
8257 8752
4654 1467
7731 3004
602 3303
3664 3410
7617 9508
2589 9014
8788 6393
2173 8826
8862 9364
8062 1662
6345 234
982 1163
3968 2507
9718 6498
4944 3163
7414 5084
601 6927
5300 1234
3220 4194
4061 7821
1309 9442
5689 1543
28 3252
5646 1795
5522 6865
7062 2250
3949 7686
533 8344
2789 5678
4851 4753
7974 3720
7744 1288
8343 7998
7251 364
7657 1235
2446 5164
4514 1908
9911 984
3957 8334
8500 5326
9123 5930
6568 9002
4433 923
6336 5596
3062 1004
3952 1212
8261 7530
2965 7276
4775 6575
6409 6260
2842 4306
965 9170
3946 3347
290 9321
437 8500
1467 6431
4318 4333
30 3216
5951 6661
1953 711
9037 6018
1663 2581
7971 5653
4853 1200
1709 9558
8603 4004
8993 7394
1256 9443
2038 5629
1458 313
3293 8226
455 8797
5724 1292
6298 1588
3825 6516
3782 1896
5439 883
6520 2815
3661 8215
8041 492
8314 1296
6966 4176
435 5626
5994 7236
9224 8211
8366 850
9329 6706
9007 4957
2349 624
9412 3509
8293 3480
9821 953
711 5864
8105 8181
76 7798
1088 947
3990 6983
3613 1425
4953 6021
9128 8865
6965 6175
5501 5757
4059 6146
1619 2337
5233 9970
2748 4139
6551 6578
4616 557
5329 8864
6150 7089
7201 9359
3368 9406
5515 4328
4947 7476
8246 8637
7531 4841
9834 7908
8139 4891
9618 564
1372 4295
6741 2470
3302 5429
6864 2588
1010 6488
8438 4755
8421 9348
7350 9395
6160 5407
7027 4204
6848 7941
8245 1902
9545 9255
5405 492
6656 3808
7455 3297
4987 7412
7039 8542
1289 3817
1244 8292
6996 6217
8325 604
2174 3545
2686 697
2099 5698
1344 1088
3071 7175
1224 187
4247 4122
3839 8232
745 1699
2584 587
6698 9245
9961 3998
5468 7713
4213 6478
7771 2990
6710 9399
3973 4270
2342 3056
5928 3998
23 4423
3142 6660
2745 6196
4726 734
3920 4563
7979 3565
3192 267
4238 3418
5937 2753
8289 960
3322 6777
3568 3838
5872 2876
98 7342
3960 3563
7254 8611
2195 9844
8174 7662
6281 6082
4419 6180
9402 6002
5286 9074
5763 5574
4349 1928
7568 4151
9392 4641
1151 7973
147 9000
460 9949
4557 7820
6491 2756
2002 344
7442 9012
4556 1767
6506 744
2117 2473
6208 2046
6016 5554
6714 3795
172 2148
9668 8048
3453 5425
3930 6948
3879 6469
3805 7095
6169 2989
6334 4156
5625 8401
9160 1870
326 408
5077 2162
5969 4957
9911 1516
4587 4195
8257 7949
8415 7877
7572 329
4261 7929
2019 9974
6486 5028
3627 5311
8697 7931
5658 9509
9971 7578
7102 6420
2883 7688
4556 4939
3379 7359
7130 4447
3682 5175
908 4492
2261 3920
8337 7855
177 5683
7032 5640
146 3104
9048 6565
9461 4330
206 6133
1996 6273
54 3796
6049 2121
5675 7728
923 8454
5950 8968
2980 8984
269 2807
1297 6073
3797 5340
8974 1366
7796 3186
3417 42
4306 7147
9281 605
7871 1370
5190 2869
8237 6933
2332 6050
3223 2018
9512 7948
9311 4521
8869 9644
4261 5687
1104 1661
2264 1764
3511 5161
7 1065
8519 6162
861 4493
2001 4654
9318 9029
5373 5256
7961 6252
7820 237
3019 2572
4982 4405
5572 7660
8511 9403
9152 7532
420 7927
612 1373
6466 6149
2039 3868
7574 6288
2841 5811
9721 1385
9307 167
1942 1273
9612 4495
3454 252
8995 9790
1335 585
6766 3135
2395 9619
1472 6420
8592 4661
1703 9543
7376 1381
4693 2545
1848 1988
9824 8222
1471 1249
2550 4564
6766 7583
8276 1492
7763 3986
8384 3137
5364 1898
6194 5535
2874 8818
1985 9862
4203 4763
4931 5085
6939 7055
5214 6693
9011 3583
9967 5067
1926 2642
8733 317
849 3401
2340 6844
1042 6297
2441 4334
6397 1873
9045 2602
5005 1398
6608 4710
7514 388
9133 8913
9134 6023
1035 9014
1660 2601
5817 1615
3179 2603
6099 3655
370 5016
724 7324
2930 7969
4896 6107
315 6654
1758 5823
9461 9602
7203 3136
4898 5495
3210 5220
4919 2729
498 2068
8167 4488
1031 6009
8471 5503
799 4136
9456 7436
8676 3466
1488 6690
5752 5136
5073 9561
3372 4561
5154 4438
4174 8891
4563 7415
8250 9646
7769 6421
7817 7860
3728 9016
6686 6766
4898 8425
6374 1676
7980 5158
5215 3853
3369 7128
13 9649
2719 4769
8860 9992
6255 408
2077 1861
1112 4337
7667 8290
1837 8725
3317 7243
7638 3655
7787 3135
8251 3954
6949 1763
3999 463
3735 222
4727 3327
2712 2992
8161 2802
2430 3004
7195 9260
2446 7871
6067 7467
9523 1318
7431 1066
9817 6632
3814 6864
3286 3476
3103 5421
7389 8101
9779 5454
7552 9135
6875 8007
6250 2556
1550 5836
3947 3329
8312 770
4358 5387
7732 9638
1737 7570
8180 2747
2200 9337
813 5902
7413 6266
5887 3509
4869 4085
3621 7615
6073 873
1372 5020
1789 6794
2070 8999
5465 8365
4970 2385
9765 2015
9311 5609
1292 5798
4832 4902
3023 4370
2467 9581
8071 7736
7859 1111
9936 7508
9997 1210
4396 8425
2297 8897
2294 6783
6946 4450
4227 1025
5192 7206
4675 8317
5331 8113
196 2942
365 3067
3159 3647
969 7088
1075 6805
9724 3724
1640 1599
9894 4691
5068 7347
6057 7550
2370 3288
2980 6126
9474 6681
5615 7767
6963 1000
1414 2346
9816 1873
3959 2461
6002 4249
7890 4868
6747 5504
3600 4233
4872 6642
8360 7319
8838 5290
2223 2014
2712 3994
8113 1106
4976 4242
8791 577
7610 2258
6602 6362
9091 1701
2609 5322
3945 6864
7294 1792
6171 8951
5443 716
3061 9910
931 9523
5993 9335
7588 9308
6297 3031
8598 1474
7038 1536
3448 7376
2993 8061
3493 4771
8586 9280
9674 708
8393 1966
6043 8491
553 7589
4089 4464
9217 4596
2342 8035
183 1356
4646 495
9710 3354
4871 5823
4402 87
9218 5175
2141 1287
3845 7862
5787 2483
1996 5265
4072 5106
4870 742
3572 6269
3793 8870
6019 5577
5186 9651
5546 3209
2674 7509
9385 883
4045 6885
9045 5530
2240 745
4194 9076
7658 6507
6396 4328
6828 7891
432 5627
5525 6493
4461 8135
8782 8275
1724 8832
5632 1395
3585 4833
1216 777
758 5816
770 7587
571 6762
6913 5437
6642 613
7517 6945
9042 7008
4015 3711
7716 3670
6609 1915
3557 1287
3483 9346
3579 8060
6518 7023
7184 1427
4008 2880
816 9825
2092 4543
2902 6875
7349 4462
1723 3236
7947 3550
1135 5636
9156 8043
7597 3886
4360 8168
8309 192
7477 4215
8155 9
4737 5636
6075 1552
8070 3700
7357 2437
983 7929
4885 7252
7887 2352
8288 7093
58 5466
5582 2269
6249 7931
9902 103
3207 5570
5281 7558
1176 9949
7291 2641
6148 7352
5345 8648
3616 5127
5491 6340
7280 8951
7558 687
4977 4836
8450 112
9760 8096
1437 6384
3019 4542
7051 7668
9475 2536
9673 5704
9835 3351
9419 9220
4627 7
482 7991
7868 3005
4794 595
5664 5167
6977 6714
8060 6126
4035 6929
7059 5048
2705 5703
8012 9893
7996 8873
2163 8712
9949 7336
3104 2445
390 5308
3410 8539
3149 9437
4148 2907
5647 453
8805 7378
6104 8674
4111 7804
6459 5771
3272 5503
5128 9321
7828 8052
2910 6157
7565 7207
7423 4512
9026 4748
7977 5811
4017 934
429 6246
5173 9756
2216 5380
5475 4555
9338 6157
3964 2956
7499 9997
1735 371
3945 921
7875 1629
1828 5267
152 7638
8586 1916
8639 5575
7586 494
4672 5964
8218 6
1476 3177
2290 5225
6996 1338
4551 3197
111 3512
3700 5483
2428 3585
1876 510
1146 2490
4515 5367
2569 598
6220 4872
3224 3579
2384 7567
86 8362
4319 9508
1684 5700
5218 9576
4128 6997
9290 3794
675 1337
3190 1510
3349 7447
1440 2451
4759 7704
2334 4629
3980 8496
4219 614
3118 4617
1208 9537
3467 4070
8477 3082
3531 5494
1146 2819
2063 7438
5134 8623
5882 9097
3502 4480
4024 3794
9421 1395
4573 5130
1028 293
6588 5072
7530 9639
4171 6992
8445 4865
2805 5500
3187 7529
9680 1007
902 4411
4547 832
1102 584
5007 7579
3553 6246
1901 8052
1670 6388
5905 3245
2070 442
4820 3889
5576 3380
3035 1825
2345 1080
269 8848
9961 4522
6553 2385
6293 8049
9938 174
6755 5680
3905 77
1363 927
1006 9997
2971 8746
1668 3049
7891 3522
4507 9610
2405 7328
5840 8395
8824 1239
4634 8402
7515 2786
1825 6982
4109 3477
594 5440
2277 2978
4167 1349
438 2457
74 2100
1611 5410
6646 9092
5164 6853
9039 3385
6887 6074
6308 6318
3430 8781
1717 910
5229 4615
8361 2270
9578 2137
3934 789
3653 9533
3439 9864
836 1246
677 2500
3236 9621
3251 8625
6076 319
4102 2191
4546 4591
5761 9858
8337 7203
4862 458
9087 4889
2236 9297
9519 6967
7268 5289
9230 3485
2566 3155
6084 5812
1831 2082
7011 639
1497 55
3242 5331
532 2053
774 2491
7636 2065
882 2161
6419 7573
5431 1449
8063 8228
795 3689
8732 5830
9003 8967
3208 3819
4469 7477
398 6871
4294 4544
9758 8320
6104 750
7429 9648
1233 8046
8795 1609
6389 781
9773 5924
1963 5439
5800 969
3553 448
5632 9390
7342 5996
7485 2337
1676 7191
2311 535
8582 7289
9407 7963
8137 442
512 1669
1737 8164
7626 9809
7954 3162
3364 1203
7320 3417
2337 9908
939 3518
1611 3913
5933 1893
7448 2003
2660 5879
5280 4724
511 3742
9726 4242
103 8478
2242 4298
2276 2858
6374 3891
2745 5009
2773 5965
6387 1882
2413 6359
305 7211
6684 2251
6348 5527
5642 9005
9800 8045
6452 2638
2719 2906
307 6602
765 9630
2621 7454
6918 2199
4533 8385
2719 9288
5582 430
6736 7708
7048 6995
5232 306
3060 7003
2649 1490
4364 8975
59 5700
5284 7122
6643 2938
7144 5233
4787 496
9015 9639
7770 2752
513 2171
815 188
2908 6246
3660 7803
7769 7534
8830 2375
8681 8272
1646 3855
7211 4494
7087 6995
429 3186
2020 4543
8800 8363
2231 4239
4948 2918
7134 305
3924 1167
2995 4201
114 4952
584 8681
1887 3325
2963 1405
9564 1692
2983 3352
7018 5648
9978 1206
1261 8615
3269 242
6082 7883
8741 9319
4770 6806
66 1699
9370 2951
4935 3362
4693 1329
3787 2206
9584 1120
343 7059
6456 4946
3467 9676
5082 5659
9415 6660
1939 6137
4340 5620
5148 4612
2062 5202
7255 741
2451 7340
4022 7372
6510 6248
7379 1545
5069 9908
2795 4293
6276 4635
1076 2666
562 5964
1057 9143
4102 7035
131 6194
6032 8175
8716 7451
3502 7604
6312 906
9252 4645
7518 1881
765 7169
5607 2746
5224 1472
9582 9413
2169 996
5888 2755
3870 4049
2656 8570
9699 1700
5594 8793
4082 4855
6260 6754
6164 9670
2524 1009
1753 9610
1856 9751
5572 2243
8993 6822
8136 719
785 5769
366 6218
1964 2451
5763 2442
1737 83
9186 9848
4533 3645
7957 550
3554 3607
4152 5485
7938 6311
2344 7899
7771 2110
2971 5188
3266 8271
2100 5623
2698 8897
262 7695
4035 1586
175 5417
8653 1765
1869 3725
4717 9942
4 262
5392 9000
1679 5203
2884 3432
1650 109
9616 4577
8029 5932
7614 9614
7360 2353
807 8495
7712 772
716 9013
4639 6564
8996 5719
9403 9287
687 6607
8893 4580
7322 7929
7927 9661
682 9330
9813 2024
6321 1624
4549 3691
4050 2420
2029 414
2903 2292
2513 5301
8842 8723
3274 4270
5985 6235
2438 3054
6318 2802
1715 7891
2309 1840
6684 5848
7983 4161
7782 4659
9318 3924
2069 1383
4839 673
3902 7285
702 986
3444 7656
6278 2009
229 6604
4055 8446
5206 1306
6260 2707
9597 3567
1638 4734
9372 7324
9602 2688
9455 489
8374 3139
3136 5822
3650 8343
3310 1164
4017 8348
3138 6347
4946 264
1742 625
2996 4660
7655 5604
2824 276
1012 7336
1023 4271
7733 1185
2762 1129
7918 1828
8333 6505
684 9121
6643 1239
7554 5836
1298 5037
5929 516
6887 5126
6925 6979
2993 2010
7662 950
4030 1986
8855 6044
8912 3366
3552 1927
7708 5626
8110 3668
1342 6596
5553 7956
5749 8006
3895 6979
7511 876
5592 9014
3470 1575
2590 4287
3101 6809
4193 9994
9542 2765
6758 7
4293 6897
9956 8551
9627 3729
335 6249
4110 3652
9475 9018
7982 3835
5066 1475
6911 8620
2054 9657
7462 5653
5697 6407
1387 1428
3526 3540
9835 2399
8315 3311
7046 3028
6536 5026
5865 6997
870 9123
8796 2100
9438 3647
9106 1325
9417 9578
5416 1619
5771 1545
6450 5066
967 7345
2281 4241
3836 4714
5714 1554
402 9693
875 1529
2173 8117
9640 787
2575 2097
5596 6674
1598 7453
40 2820
5990 2033
2118 2000
1138 4619
1280 5977
8183 7728
479 6449
4237 3021
9167 7778
6303 643
8944 4779
5903 4936
5180 7634
1603 5067
6433 6080
9268 6787
7531 9864
1238 9700
8775 2728
8743 6253
6445 9384
6003 7141
7341 732
3973 3762
2994 6268
2851 6482
2001 1126
3531 9764
4469 7772
5246 3894
470 7173
4554 6157
9789 6717
2862 7319
6301 4330
615 6246
3412 9626
6019 3438
4834 6914
7142 9767
2067 4840
3083 4202
7623 9237
5276 557
7797 3424
1705 8280
4171 400
665 6524
7591 3903
8163 2424
5721 7489
4408 3761
4877 18
3229 775
6191 516
799 5718
9233 1983
4403 6220
7845 46
5499 816
6236 8922
3578 6066
7343 9742
6907 7353
6368 6658
8854 456
5100 8255
3119 5037
965 8800
3808 5689
3364 7027
6377 9821
1568 8622
1102 4783
4416 7639
9105 9694
6091 9321
193 3808
6131 509
20 9863
7116 241
384 1853
7206 7071
7516 9846
3446 4768
1645 9946
3774 5044
3295 4929
791 3205
6825 1601
5515 178
6531 8785
3185 4259
242 8065
5939 1667
1421 7100
2437 9641
5417 2894
1493 4081
1421 6827
3427 6393
2080 9904
785 755
2816 9934
1329 4732
3481 449
6298 997
867 72
326 4959
8686 8033
8208 4798
2253 8585
3686 7051
7785 879
2356 7329
9324 3660
6446 1417
5787 387
113 8038
9310 2487
8622 8614
976 2000
7931 3490
3056 319
324 9307
7004 353
7573 5355
6408 9078
4189 4340
5057 7738
5391 6931
9400 8949
9349 52
6123 2027
1537 1904
722 9531
4344 5902
3992 8076
479 5836
3990 5213
6498 1603
1328 4619
2004 2490
7007 4814
8150 9540
1479 7958
1235 2204
9820 4250
9164 4809
7352 6145
42 531
1814 2031
2789 7453
1065 4390
4910 3629
6884 1662
4297 8346
5352 5161
6937 5390
4850 7563
7817 8030
9076 710
799 2297
9160 6416
9184 1854
82 9734
5626 1997
6416 3300
651 5265
855 8887
4738 6643
8987 2093
7315 7069
3971 790
8676 3360
3654 4771
5179 3020
6958 4964
702 3179
2943 2719
3247 5445
7552 4512
5763 2661
2398 2213
3415 1220
5937 3697
45 5009
6684 5957
5578 8478
2112 6208
7388 4295
3543 9280
8377 2543
8643 4971
646 2307
671 6720
2756 7705
9260 3401
6249 6351
268 369
9583 9423
1648 8411
5192 7000
3437 3299
9124 6443
4054 214
8520 7777
9529 7816
4546 1744
5400 8097
8344 5665
918 353
3828 376
7242 7048
4553 1159
5753 1777
4671 6089
749 3660
9456 4697
9112 3464
5613 9641
3729 1191
3102 2456
3379 8442
3435 4246
6757 4838
3028 9924
8413 7365
7432 8833
8916 6227
128 2126
7447 4173
6741 6830
6024 4830
4957 7674
604 9483
3717 9940
8299 3715
8345 3275
5097 8806
8243 6610
5023 2072
3788 8368
3707 3557
8145 558
2952 4297
5342 9321
3168 2803
2211 2785
6090 513
217 9323
4073 4148
348 7164
2134 8978
9863 3236
6439 7498
754 4799
1254 7819
131 4391
422 887
3837 2073
618 7748
793 4198
2283 7978
4975 1250
6089 3179
4798 7951
8431 1877
1024 1496
8665 6478
345 1270
8289 3408
195 4429
4474 5504
6166 4587
9573 7102
4439 6268
6115 5718
6004 8507
99 4694
2658 3290
4789 1222
5401 3651
4914 4604
7212 3224
507 1860
3769 5741
4206 2334
7737 8810
5860 2674
9576 7431
9713 9440
6156 5891
3455 3515
2905 5401
4205 7293
1242 455
44 6741
4442 9702
9542 6348
9593 5941
4069 1382
2269 3172
7928 7534
435 6783
3247 2192
5533 3303
6225 6821
153 5540
5236 4624
6964 9258
1653 2652
1437 3523
7129 1195
6101 293
6064 4176
1560 2499
5318 1676
7725 5350
7226 1841
8950 4843
840 5188
8557 9572
3425 4339
7568 7576
5198 9703
2050 3257
8630 2042
5585 2256
2788 5002
7581 2557
8592 9332
8241 806
3032 2848
7088 4292
9904 8978
16 2388
781 5525
2395 9378
6068 3202
2347 1012
2019 7302
EOF
